[TITLE]
;; UFNS Operational 1D Stormwater Network Model for Vijayawada
;; Derived from OSM waterways and 30m GLO-30 DEM

[OPTIONS]
FLOW_UNITS           CMS
INFILTRATION         HORTON
FLOW_ROUTING         DYNWAVE
START_DATE           08/27/2026
START_TIME           00:00:00
END_DATE             08/27/2026
END_TIME             06:00:00
REPORT_STEP          00:05:00
DRY_STEP             00:01:00
WET_STEP             00:01:00
ROUTING_STEP         1.0
ALLOW_PONDING        NO

[JUNCTIONS]
;;Name           Elevation  MaxDepth   InitDepth  SurDepth   Aponded
J_0000_IN        14.00      2.50       0.0        0.0        0.0
J_0000_OUT       13.80      2.50       0.0        0.0        0.0
J_0001_IN        16.00      2.50       0.0        0.0        0.0
J_0001_OUT       2.00       2.50       0.0        0.0        0.0
J_0002_IN        16.20      2.50       0.0        0.0        0.0
J_0002_OUT       2.00       2.50       0.0        0.0        0.0
J_0003_IN        14.00      2.50       0.0        0.0        0.0
J_0003_OUT       2.00       2.50       0.0        0.0        0.0
J_0004_IN        2.00       2.50       0.0        0.0        0.0
J_0005_IN        13.93      2.50       0.0        0.0        0.0
J_0005_OUT       2.00       2.50       0.0        0.0        0.0
J_0006_IN        14.00      2.50       0.0        0.0        0.0
J_0006_OUT       2.00       2.50       0.0        0.0        0.0
J_0007_IN        2.00       2.50       0.0        0.0        0.0
J_0008_IN        2.00       2.50       0.0        0.0        0.0
J_0009_IN        19.85      2.50       0.0        0.0        0.0
J_0009_OUT       19.65      2.50       0.0        0.0        0.0
J_0010_IN        18.73      2.50       0.0        0.0        0.0
J_0010_OUT       17.58      2.50       0.0        0.0        0.0
J_0011_IN        17.58      2.50       0.0        0.0        0.0
J_0011_OUT       14.31      2.50       0.0        0.0        0.0
J_0012_IN        15.26      2.50       0.0        0.0        0.0
J_0012_OUT       2.00       2.50       0.0        0.0        0.0
J_0013_IN        16.96      2.50       0.0        0.0        0.0
J_0013_OUT       2.00       2.50       0.0        0.0        0.0
J_0014_IN        18.38      2.50       0.0        0.0        0.0
J_0014_OUT       2.00       2.50       0.0        0.0        0.0
J_0015_IN        14.00      2.50       0.0        0.0        0.0
J_0015_OUT       13.80      2.50       0.0        0.0        0.0
J_0016_IN        19.80      2.50       0.0        0.0        0.0
J_0016_OUT       17.63      2.50       0.0        0.0        0.0
J_0017_IN        2.00       2.50       0.0        0.0        0.0
J_0018_IN        2.00       2.50       0.0        0.0        0.0
J_0019_IN        24.38      2.50       0.0        0.0        0.0
J_0019_OUT       14.50      2.50       0.0        0.0        0.0
J_0020_IN        24.60      2.50       0.0        0.0        0.0
J_0020_OUT       23.41      2.50       0.0        0.0        0.0
J_0021_IN        23.41      2.50       0.0        0.0        0.0
J_0021_OUT       23.21      2.50       0.0        0.0        0.0
J_0022_IN        2.00       2.50       0.0        0.0        0.0
J_0023_IN        14.31      2.50       0.0        0.0        0.0
J_0023_OUT       13.93      2.50       0.0        0.0        0.0
J_0024_IN        15.00      2.50       0.0        0.0        0.0
J_0024_OUT       2.00       2.50       0.0        0.0        0.0
J_0025_IN        16.96      2.50       0.0        0.0        0.0
J_0025_OUT       15.53      2.50       0.0        0.0        0.0
J_0026_IN        15.53      2.50       0.0        0.0        0.0
J_0026_OUT       15.26      2.50       0.0        0.0        0.0
J_0027_IN        19.12      2.50       0.0        0.0        0.0
J_0027_OUT       18.76      2.50       0.0        0.0        0.0
J_0028_IN        18.82      2.50       0.0        0.0        0.0
J_0028_OUT       18.68      2.50       0.0        0.0        0.0
J_0029_IN        18.85      2.50       0.0        0.0        0.0
J_0029_OUT       18.58      2.50       0.0        0.0        0.0
J_0030_IN        18.68      2.50       0.0        0.0        0.0
J_0030_OUT       18.48      2.50       0.0        0.0        0.0
J_0031_IN        2.00       2.50       0.0        0.0        0.0
J_0032_IN        2.00       2.50       0.0        0.0        0.0
J_0033_IN        2.00       2.50       0.0        0.0        0.0
J_0034_IN        18.01      2.50       0.0        0.0        0.0
J_0034_OUT       17.81      2.50       0.0        0.0        0.0
J_0035_IN        18.53      2.50       0.0        0.0        0.0
J_0035_OUT       18.33      2.50       0.0        0.0        0.0
J_0036_IN        19.18      2.50       0.0        0.0        0.0
J_0036_OUT       18.83      2.50       0.0        0.0        0.0
J_0037_IN        18.83      2.50       0.0        0.0        0.0
J_0037_OUT       18.40      2.50       0.0        0.0        0.0
J_0038_IN        18.40      2.50       0.0        0.0        0.0
J_0038_OUT       18.01      2.50       0.0        0.0        0.0
J_0039_IN        18.77      2.50       0.0        0.0        0.0
J_0039_OUT       17.58      2.50       0.0        0.0        0.0
J_0040_IN        19.09      2.50       0.0        0.0        0.0
J_0040_OUT       17.22      2.50       0.0        0.0        0.0
J_0041_IN        18.81      2.50       0.0        0.0        0.0
J_0041_OUT       18.61      2.50       0.0        0.0        0.0
J_0042_IN        15.40      2.50       0.0        0.0        0.0
J_0042_OUT       2.00       2.50       0.0        0.0        0.0
J_0043_IN        16.45      2.50       0.0        0.0        0.0
J_0043_OUT       16.25      2.50       0.0        0.0        0.0
J_0044_IN        15.74      2.50       0.0        0.0        0.0
J_0044_OUT       15.58      2.50       0.0        0.0        0.0
J_0045_IN        15.58      2.50       0.0        0.0        0.0
J_0045_OUT       15.08      2.50       0.0        0.0        0.0
J_0046_IN        15.08      2.50       0.0        0.0        0.0
J_0046_OUT       14.88      2.50       0.0        0.0        0.0
J_0047_IN        15.08      2.50       0.0        0.0        0.0
J_0047_OUT       14.88      2.50       0.0        0.0        0.0
J_0048_IN        15.31      2.50       0.0        0.0        0.0
J_0048_OUT       15.11      2.50       0.0        0.0        0.0
J_0049_IN        15.54      2.50       0.0        0.0        0.0
J_0049_OUT       15.34      2.50       0.0        0.0        0.0
J_0050_IN        15.54      2.50       0.0        0.0        0.0
J_0050_OUT       15.34      2.50       0.0        0.0        0.0
J_0051_IN        16.65      2.50       0.0        0.0        0.0
J_0051_OUT       15.54      2.50       0.0        0.0        0.0
J_0052_IN        16.65      2.50       0.0        0.0        0.0
J_0052_OUT       16.45      2.50       0.0        0.0        0.0
J_0053_IN        17.37      2.50       0.0        0.0        0.0
J_0053_OUT       16.45      2.50       0.0        0.0        0.0
J_0054_IN        16.45      2.50       0.0        0.0        0.0
J_0054_OUT       16.25      2.50       0.0        0.0        0.0
J_0055_IN        15.11      2.50       0.0        0.0        0.0
J_0055_OUT       2.00       2.50       0.0        0.0        0.0
J_0056_IN        2.00       2.50       0.0        0.0        0.0
J_0057_IN        16.91      2.50       0.0        0.0        0.0
J_0057_OUT       16.71      2.50       0.0        0.0        0.0
J_0058_IN        17.17      2.50       0.0        0.0        0.0
J_0058_OUT       16.04      2.50       0.0        0.0        0.0
J_0059_IN        17.17      2.50       0.0        0.0        0.0
J_0059_OUT       16.97      2.50       0.0        0.0        0.0
J_0060_IN        16.04      2.50       0.0        0.0        0.0
J_0060_OUT       15.84      2.50       0.0        0.0        0.0
J_0061_IN        16.04      2.50       0.0        0.0        0.0
J_0061_OUT       15.84      2.50       0.0        0.0        0.0
J_0062_IN        20.40      2.50       0.0        0.0        0.0
J_0062_OUT       20.10      2.50       0.0        0.0        0.0
J_0063_IN        10.06      2.50       0.0        0.0        0.0
J_0063_OUT       9.50       2.50       0.0        0.0        0.0
J_0064_IN        19.44      2.50       0.0        0.0        0.0
J_0064_OUT       18.97      2.50       0.0        0.0        0.0
J_0065_IN        21.30      2.50       0.0        0.0        0.0
J_0065_OUT       21.10      2.50       0.0        0.0        0.0
J_0066_IN        20.10      2.50       0.0        0.0        0.0
J_0066_OUT       19.90      2.50       0.0        0.0        0.0
J_0067_IN        20.10      2.50       0.0        0.0        0.0
J_0067_OUT       19.90      2.50       0.0        0.0        0.0
J_0068_IN        20.10      2.50       0.0        0.0        0.0
J_0068_OUT       19.90      2.50       0.0        0.0        0.0
J_0069_IN        20.48      2.50       0.0        0.0        0.0
J_0069_OUT       20.28      2.50       0.0        0.0        0.0
J_0070_IN        20.86      2.50       0.0        0.0        0.0
J_0070_OUT       18.30      2.50       0.0        0.0        0.0
J_0071_IN        21.36      2.50       0.0        0.0        0.0
J_0071_OUT       20.86      2.50       0.0        0.0        0.0
J_0072_IN        14.81      2.50       0.0        0.0        0.0
J_0072_OUT       14.61      2.50       0.0        0.0        0.0
J_0073_IN        16.03      2.50       0.0        0.0        0.0
J_0073_OUT       15.11      2.50       0.0        0.0        0.0
J_0074_IN        15.89      2.50       0.0        0.0        0.0
J_0074_OUT       15.69      2.50       0.0        0.0        0.0
J_0075_IN        16.21      2.50       0.0        0.0        0.0
J_0075_OUT       15.89      2.50       0.0        0.0        0.0
J_0076_IN        15.07      2.50       0.0        0.0        0.0
J_0076_OUT       14.87      2.50       0.0        0.0        0.0
J_0077_IN        15.07      2.50       0.0        0.0        0.0
J_0077_OUT       14.87      2.50       0.0        0.0        0.0
J_0078_IN        14.86      2.50       0.0        0.0        0.0
J_0078_OUT       14.66      2.50       0.0        0.0        0.0
J_0079_IN        14.86      2.50       0.0        0.0        0.0
J_0079_OUT       14.66      2.50       0.0        0.0        0.0
J_0080_IN        15.03      2.50       0.0        0.0        0.0
J_0080_OUT       14.81      2.50       0.0        0.0        0.0
J_0081_IN        14.81      2.50       0.0        0.0        0.0
J_0081_OUT       14.61      2.50       0.0        0.0        0.0
J_0082_IN        20.51      2.50       0.0        0.0        0.0
J_0082_OUT       19.80      2.50       0.0        0.0        0.0
J_0083_IN        19.72      2.50       0.0        0.0        0.0
J_0083_OUT       19.52      2.50       0.0        0.0        0.0
J_0084_IN        20.53      2.50       0.0        0.0        0.0
J_0084_OUT       20.33      2.50       0.0        0.0        0.0
J_0085_IN        18.39      2.50       0.0        0.0        0.0
J_0085_OUT       17.13      2.50       0.0        0.0        0.0

[OUTFALLS]
;;Name           Elevation  Type  Stage/Gated
J_0004_OUT       1.80       FREE  NO
J_0007_OUT       1.80       FREE  NO
J_0008_OUT       1.80       FREE  NO
J_0017_OUT       1.80       FREE  NO
J_0018_OUT       1.80       FREE  NO
J_0022_OUT       1.80       FREE  NO
J_0031_OUT       1.80       FREE  NO
J_0032_OUT       1.80       FREE  NO
J_0033_OUT       1.80       FREE  NO
J_0056_OUT       1.80       FREE  NO

[CONDUITS]
;;Name           From             To               Length     Manning    InOffset   OutOffset  InitFlow   MaxFlow
C_0000           J_0000_IN        J_0000_OUT       1357.37    0.0150     0.0        0.0        0.0        0.0
C_0001           J_0001_IN        J_0001_OUT       58387.35   0.0150     0.0        0.0        0.0        0.0
C_0002           J_0002_IN        J_0002_OUT       49135.23   0.0150     0.0        0.0        0.0        0.0
C_0003           J_0003_IN        J_0003_OUT       21963.14   0.0150     0.0        0.0        0.0        0.0
C_0004           J_0004_IN        J_0004_OUT       11969.37   0.0150     0.0        0.0        0.0        0.0
C_0005           J_0005_IN        J_0005_OUT       69328.77   0.0150     0.0        0.0        0.0        0.0
C_0006           J_0006_IN        J_0006_OUT       107867.86  0.0150     0.0        0.0        0.0        0.0
C_0007           J_0007_IN        J_0007_OUT       13597.14   0.0150     0.0        0.0        0.0        0.0
C_0008           J_0008_IN        J_0008_OUT       9159.24    0.0150     0.0        0.0        0.0        0.0
C_0009           J_0009_IN        J_0009_OUT       142.19     0.0150     0.0        0.0        0.0        0.0
C_0010           J_0010_IN        J_0010_OUT       3735.54    0.0150     0.0        0.0        0.0        0.0
C_0011           J_0011_IN        J_0011_OUT       14702.79   0.0150     0.0        0.0        0.0        0.0
C_0012           J_0012_IN        J_0012_OUT       52480.48   0.0150     0.0        0.0        0.0        0.0
C_0013           J_0013_IN        J_0013_OUT       19503.20   0.0150     0.0        0.0        0.0        0.0
C_0014           J_0014_IN        J_0014_OUT       33489.89   0.0150     0.0        0.0        0.0        0.0
C_0015           J_0015_IN        J_0015_OUT       381.23     0.0150     0.0        0.0        0.0        0.0
C_0016           J_0016_IN        J_0016_OUT       962.55     0.0150     0.0        0.0        0.0        0.0
C_0017           J_0017_IN        J_0017_OUT       954.62     0.0150     0.0        0.0        0.0        0.0
C_0018           J_0018_IN        J_0018_OUT       25405.77   0.0150     0.0        0.0        0.0        0.0
C_0019           J_0019_IN        J_0019_OUT       574.30     0.0150     0.0        0.0        0.0        0.0
C_0020           J_0020_IN        J_0020_OUT       244.45     0.0150     0.0        0.0        0.0        0.0
C_0021           J_0021_IN        J_0021_OUT       338.60     0.0150     0.0        0.0        0.0        0.0
C_0022           J_0022_IN        J_0022_OUT       86922.59   0.0150     0.0        0.0        0.0        0.0
C_0023           J_0023_IN        J_0023_OUT       3968.97    0.0150     0.0        0.0        0.0        0.0
C_0024           J_0024_IN        J_0024_OUT       10611.49   0.0150     0.0        0.0        0.0        0.0
C_0025           J_0025_IN        J_0025_OUT       11663.00   0.0150     0.0        0.0        0.0        0.0
C_0026           J_0026_IN        J_0026_OUT       50.38      0.0150     0.0        0.0        0.0        0.0
C_0027           J_0027_IN        J_0027_OUT       1901.55    0.0150     0.0        0.0        0.0        0.0
C_0028           J_0028_IN        J_0028_OUT       1048.37    0.0150     0.0        0.0        0.0        0.0
C_0029           J_0029_IN        J_0029_OUT       561.13     0.0150     0.0        0.0        0.0        0.0
C_0030           J_0030_IN        J_0030_OUT       99.06      0.0150     0.0        0.0        0.0        0.0
C_0031           J_0031_IN        J_0031_OUT       2692.26    0.0150     0.0        0.0        0.0        0.0
C_0032           J_0032_IN        J_0032_OUT       5046.28    0.0150     0.0        0.0        0.0        0.0
C_0033           J_0033_IN        J_0033_OUT       7951.45    0.0150     0.0        0.0        0.0        0.0
C_0034           J_0034_IN        J_0034_OUT       5975.09    0.0150     0.0        0.0        0.0        0.0
C_0035           J_0035_IN        J_0035_OUT       3246.95    0.0150     0.0        0.0        0.0        0.0
C_0036           J_0036_IN        J_0036_OUT       50.32      0.0150     0.0        0.0        0.0        0.0
C_0037           J_0037_IN        J_0037_OUT       1528.67    0.0150     0.0        0.0        0.0        0.0
C_0038           J_0038_IN        J_0038_OUT       105.27     0.0150     0.0        0.0        0.0        0.0
C_0039           J_0039_IN        J_0039_OUT       4711.69    0.0150     0.0        0.0        0.0        0.0
C_0040           J_0040_IN        J_0040_OUT       4839.39    0.0150     0.0        0.0        0.0        0.0
C_0041           J_0041_IN        J_0041_OUT       114.13     0.0150     0.0        0.0        0.0        0.0
C_0042           J_0042_IN        J_0042_OUT       4554.41    0.0150     0.0        0.0        0.0        0.0
C_0043           J_0043_IN        J_0043_OUT       156.43     0.0150     0.0        0.0        0.0        0.0
C_0044           J_0044_IN        J_0044_OUT       11.16      0.0150     0.0        0.0        0.0        0.0
C_0045           J_0045_IN        J_0045_OUT       490.36     0.0150     0.0        0.0        0.0        0.0
C_0046           J_0046_IN        J_0046_OUT       10.00      0.0150     0.0        0.0        0.0        0.0
C_0047           J_0047_IN        J_0047_OUT       276.32     0.0150     0.0        0.0        0.0        0.0
C_0048           J_0048_IN        J_0048_OUT       12.06      0.0150     0.0        0.0        0.0        0.0
C_0049           J_0049_IN        J_0049_OUT       34.63      0.0150     0.0        0.0        0.0        0.0
C_0050           J_0050_IN        J_0050_OUT       20.17      0.0150     0.0        0.0        0.0        0.0
C_0051           J_0051_IN        J_0051_OUT       35.58      0.0150     0.0        0.0        0.0        0.0
C_0052           J_0052_IN        J_0052_OUT       10.00      0.0150     0.0        0.0        0.0        0.0
C_0053           J_0053_IN        J_0053_OUT       141.62     0.0150     0.0        0.0        0.0        0.0
C_0054           J_0054_IN        J_0054_OUT       11.00      0.0150     0.0        0.0        0.0        0.0
C_0055           J_0055_IN        J_0055_OUT       1427.76    0.0150     0.0        0.0        0.0        0.0
C_0056           J_0056_IN        J_0056_OUT       918.77     0.0150     0.0        0.0        0.0        0.0
C_0057           J_0057_IN        J_0057_OUT       126.00     0.0150     0.0        0.0        0.0        0.0
C_0058           J_0058_IN        J_0058_OUT       1995.09    0.0150     0.0        0.0        0.0        0.0
C_0059           J_0059_IN        J_0059_OUT       12.33      0.0150     0.0        0.0        0.0        0.0
C_0060           J_0060_IN        J_0060_OUT       10.00      0.0150     0.0        0.0        0.0        0.0
C_0061           J_0061_IN        J_0061_OUT       12.22      0.0150     0.0        0.0        0.0        0.0
C_0062           J_0062_IN        J_0062_OUT       1325.14    0.0150     0.0        0.0        0.0        0.0
C_0063           J_0063_IN        J_0063_OUT       744.18     0.0150     0.0        0.0        0.0        0.0
C_0064           J_0064_IN        J_0064_OUT       47.26      0.0150     0.0        0.0        0.0        0.0
C_0065           J_0065_IN        J_0065_OUT       30.14      0.0150     0.0        0.0        0.0        0.0
C_0066           J_0066_IN        J_0066_OUT       11.64      0.0150     0.0        0.0        0.0        0.0
C_0067           J_0067_IN        J_0067_OUT       11.34      0.0150     0.0        0.0        0.0        0.0
C_0068           J_0068_IN        J_0068_OUT       33.88      0.0150     0.0        0.0        0.0        0.0
C_0069           J_0069_IN        J_0069_OUT       71.63      0.0150     0.0        0.0        0.0        0.0
C_0070           J_0070_IN        J_0070_OUT       22.83      0.0150     0.0        0.0        0.0        0.0
C_0071           J_0071_IN        J_0071_OUT       24.22      0.0150     0.0        0.0        0.0        0.0
C_0072           J_0072_IN        J_0072_OUT       112.05     0.0150     0.0        0.0        0.0        0.0
C_0073           J_0073_IN        J_0073_OUT       14.55      0.0150     0.0        0.0        0.0        0.0
C_0074           J_0074_IN        J_0074_OUT       168.34     0.0150     0.0        0.0        0.0        0.0
C_0075           J_0075_IN        J_0075_OUT       10.00      0.0150     0.0        0.0        0.0        0.0
C_0076           J_0076_IN        J_0076_OUT       49.21      0.0150     0.0        0.0        0.0        0.0
C_0077           J_0077_IN        J_0077_OUT       10.95      0.0150     0.0        0.0        0.0        0.0
C_0078           J_0078_IN        J_0078_OUT       16.58      0.0150     0.0        0.0        0.0        0.0
C_0079           J_0079_IN        J_0079_OUT       10.94      0.0150     0.0        0.0        0.0        0.0
C_0080           J_0080_IN        J_0080_OUT       35.13      0.0150     0.0        0.0        0.0        0.0
C_0081           J_0081_IN        J_0081_OUT       10.94      0.0150     0.0        0.0        0.0        0.0
C_0082           J_0082_IN        J_0082_OUT       224.66     0.0150     0.0        0.0        0.0        0.0
C_0083           J_0083_IN        J_0083_OUT       33.47      0.0150     0.0        0.0        0.0        0.0
C_0084           J_0084_IN        J_0084_OUT       215.96     0.0150     0.0        0.0        0.0        0.0
C_0085           J_0085_IN        J_0085_OUT       80.32      0.0150     0.0        0.0        0.0        0.0

[XSECTIONS]
;;Link           Shape        Geom1      Geom2      Geom3      Geom4      Barrels
C_0000           CIRCULAR     1.20       0.0        0.0        0.0        1
C_0001           CIRCULAR     1.20       0.0        0.0        0.0        1
C_0002           CIRCULAR     1.20       0.0        0.0        0.0        1
C_0003           CIRCULAR     1.20       0.0        0.0        0.0        1
C_0004           CIRCULAR     1.20       0.0        0.0        0.0        1
C_0005           CIRCULAR     1.20       0.0        0.0        0.0        1
C_0006           CIRCULAR     1.20       0.0        0.0        0.0        1
C_0007           CIRCULAR     1.20       0.0        0.0        0.0        1
C_0008           CIRCULAR     1.20       0.0        0.0        0.0        1
C_0009           CIRCULAR     1.20       0.0        0.0        0.0        1
C_0010           CIRCULAR     1.20       0.0        0.0        0.0        1
C_0011           CIRCULAR     1.20       0.0        0.0        0.0        1
C_0012           CIRCULAR     1.20       0.0        0.0        0.0        1
C_0013           CIRCULAR     1.20       0.0        0.0        0.0        1
C_0014           CIRCULAR     1.20       0.0        0.0        0.0        1
C_0015           CIRCULAR     1.20       0.0        0.0        0.0        1
C_0016           CIRCULAR     1.20       0.0        0.0        0.0        1
C_0017           CIRCULAR     1.20       0.0        0.0        0.0        1
C_0018           CIRCULAR     1.20       0.0        0.0        0.0        1
C_0019           CIRCULAR     1.20       0.0        0.0        0.0        1
C_0020           CIRCULAR     1.20       0.0        0.0        0.0        1
C_0021           CIRCULAR     1.20       0.0        0.0        0.0        1
C_0022           CIRCULAR     1.20       0.0        0.0        0.0        1
C_0023           CIRCULAR     1.20       0.0        0.0        0.0        1
C_0024           CIRCULAR     1.20       0.0        0.0        0.0        1
C_0025           CIRCULAR     1.20       0.0        0.0        0.0        1
C_0026           CIRCULAR     1.20       0.0        0.0        0.0        1
C_0027           CIRCULAR     1.20       0.0        0.0        0.0        1
C_0028           CIRCULAR     1.20       0.0        0.0        0.0        1
C_0029           CIRCULAR     1.20       0.0        0.0        0.0        1
C_0030           CIRCULAR     1.20       0.0        0.0        0.0        1
C_0031           CIRCULAR     1.20       0.0        0.0        0.0        1
C_0032           CIRCULAR     1.20       0.0        0.0        0.0        1
C_0033           CIRCULAR     1.20       0.0        0.0        0.0        1
C_0034           CIRCULAR     1.20       0.0        0.0        0.0        1
C_0035           CIRCULAR     1.20       0.0        0.0        0.0        1
C_0036           CIRCULAR     1.20       0.0        0.0        0.0        1
C_0037           CIRCULAR     1.20       0.0        0.0        0.0        1
C_0038           CIRCULAR     1.20       0.0        0.0        0.0        1
C_0039           CIRCULAR     1.20       0.0        0.0        0.0        1
C_0040           CIRCULAR     1.20       0.0        0.0        0.0        1
C_0041           CIRCULAR     1.20       0.0        0.0        0.0        1
C_0042           CIRCULAR     1.20       0.0        0.0        0.0        1
C_0043           CIRCULAR     1.20       0.0        0.0        0.0        1
C_0044           CIRCULAR     1.20       0.0        0.0        0.0        1
C_0045           CIRCULAR     1.20       0.0        0.0        0.0        1
C_0046           CIRCULAR     1.20       0.0        0.0        0.0        1
C_0047           CIRCULAR     1.20       0.0        0.0        0.0        1
C_0048           CIRCULAR     1.20       0.0        0.0        0.0        1
C_0049           CIRCULAR     1.20       0.0        0.0        0.0        1
C_0050           CIRCULAR     1.20       0.0        0.0        0.0        1
C_0051           CIRCULAR     1.20       0.0        0.0        0.0        1
C_0052           CIRCULAR     1.20       0.0        0.0        0.0        1
C_0053           CIRCULAR     1.20       0.0        0.0        0.0        1
C_0054           CIRCULAR     1.20       0.0        0.0        0.0        1
C_0055           CIRCULAR     1.20       0.0        0.0        0.0        1
C_0056           CIRCULAR     1.20       0.0        0.0        0.0        1
C_0057           CIRCULAR     1.20       0.0        0.0        0.0        1
C_0058           CIRCULAR     1.20       0.0        0.0        0.0        1
C_0059           CIRCULAR     1.20       0.0        0.0        0.0        1
C_0060           CIRCULAR     1.20       0.0        0.0        0.0        1
C_0061           CIRCULAR     1.20       0.0        0.0        0.0        1
C_0062           CIRCULAR     1.20       0.0        0.0        0.0        1
C_0063           CIRCULAR     1.20       0.0        0.0        0.0        1
C_0064           CIRCULAR     1.20       0.0        0.0        0.0        1
C_0065           CIRCULAR     1.20       0.0        0.0        0.0        1
C_0066           CIRCULAR     1.20       0.0        0.0        0.0        1
C_0067           CIRCULAR     1.20       0.0        0.0        0.0        1
C_0068           CIRCULAR     1.20       0.0        0.0        0.0        1
C_0069           CIRCULAR     1.20       0.0        0.0        0.0        1
C_0070           CIRCULAR     1.20       0.0        0.0        0.0        1
C_0071           CIRCULAR     1.20       0.0        0.0        0.0        1
C_0072           CIRCULAR     1.20       0.0        0.0        0.0        1
C_0073           CIRCULAR     1.20       0.0        0.0        0.0        1
C_0074           CIRCULAR     1.20       0.0        0.0        0.0        1
C_0075           CIRCULAR     1.20       0.0        0.0        0.0        1
C_0076           CIRCULAR     1.20       0.0        0.0        0.0        1
C_0077           CIRCULAR     1.20       0.0        0.0        0.0        1
C_0078           CIRCULAR     1.20       0.0        0.0        0.0        1
C_0079           CIRCULAR     1.20       0.0        0.0        0.0        1
C_0080           CIRCULAR     1.20       0.0        0.0        0.0        1
C_0081           CIRCULAR     1.20       0.0        0.0        0.0        1
C_0082           CIRCULAR     1.20       0.0        0.0        0.0        1
C_0083           CIRCULAR     1.20       0.0        0.0        0.0        1
C_0084           CIRCULAR     1.20       0.0        0.0        0.0        1
C_0085           CIRCULAR     1.20       0.0        0.0        0.0        1

[REPORT]
INPUT YES
CONTROLS YES
NODES ALL
LINKS ALL
