[TITLE]
;; UFNS Operational 1D Stormwater Network Model for Mumbai
;; Derived from OSM waterways and 30m GLO-30 DEM

[OPTIONS]
FLOW_UNITS           CMS
INFILTRATION         HORTON
FLOW_ROUTING         DYNWAVE
START_DATE           08/27/2026
START_TIME           00:00:00
END_DATE             08/27/2026
END_TIME             06:00:00
REPORT_STEP          00:05:00
DRY_STEP             00:01:00
WET_STEP             00:01:00
ROUTING_STEP         1.0
ALLOW_PONDING        NO

[JUNCTIONS]
;;Name           Elevation  MaxDepth   InitDepth  SurDepth   Aponded
J_0000_IN        20.02      2.50       0.0        0.0        0.0
J_0000_OUT       13.21      2.50       0.0        0.0        0.0
J_0001_IN        8.97       2.50       0.0        0.0        0.0
J_0001_OUT       5.37       2.50       0.0        0.0        0.0
J_0002_IN        2.00       2.50       0.0        0.0        0.0
J_0002_OUT       1.80       2.50       0.0        0.0        0.0
J_0003_IN        178.00     2.50       0.0        0.0        0.0
J_0003_OUT       126.27     2.50       0.0        0.0        0.0
J_0004_IN        3.13       2.50       0.0        0.0        0.0
J_0004_OUT       2.93       2.50       0.0        0.0        0.0
J_0005_IN        9.65       2.50       0.0        0.0        0.0
J_0005_OUT       7.28       2.50       0.0        0.0        0.0
J_0006_IN        2.00       2.50       0.0        0.0        0.0
J_0006_OUT       1.80       2.50       0.0        0.0        0.0
J_0007_IN        2.75       2.50       0.0        0.0        0.0
J_0007_OUT       1.24       2.50       0.0        0.0        0.0
J_0008_IN        4.06       2.50       0.0        0.0        0.0
J_0008_OUT       3.86       2.50       0.0        0.0        0.0
J_0009_IN        0.88       2.50       0.0        0.0        0.0
J_0009_OUT       0.68       2.50       0.0        0.0        0.0
J_0010_IN        2.03       2.50       0.0        0.0        0.0
J_0010_OUT       1.69       2.50       0.0        0.0        0.0
J_0011_IN        2.19       2.50       0.0        0.0        0.0
J_0011_OUT       1.99       2.50       0.0        0.0        0.0
J_0012_IN        18.20      2.50       0.0        0.0        0.0
J_0012_OUT       17.81      2.50       0.0        0.0        0.0
J_0013_IN        38.00      2.50       0.0        0.0        0.0
J_0013_OUT       15.15      2.50       0.0        0.0        0.0
J_0014_IN        52.50      2.50       0.0        0.0        0.0
J_0014_OUT       29.39      2.50       0.0        0.0        0.0
J_0015_IN        11.68      2.50       0.0        0.0        0.0
J_0015_OUT       4.10       2.50       0.0        0.0        0.0
J_0016_IN        5.46       2.50       0.0        0.0        0.0
J_0016_OUT       0.50       2.50       0.0        0.0        0.0
J_0017_IN        8.51       2.50       0.0        0.0        0.0
J_0017_OUT       8.31       2.50       0.0        0.0        0.0
J_0018_IN        4.79       2.50       0.0        0.0        0.0
J_0018_OUT       4.59       2.50       0.0        0.0        0.0
J_0019_IN        10.09      2.50       0.0        0.0        0.0
J_0019_OUT       4.13       2.50       0.0        0.0        0.0
J_0020_IN        8.26       2.50       0.0        0.0        0.0
J_0020_OUT       8.06       2.50       0.0        0.0        0.0
J_0021_OUT       0.50       2.50       0.0        0.0        0.0
J_0022_IN        104.27     2.50       0.0        0.0        0.0
J_0022_OUT       89.90      2.50       0.0        0.0        0.0
J_0023_IN        12.16      2.50       0.0        0.0        0.0
J_0023_OUT       11.96      2.50       0.0        0.0        0.0
J_0024_IN        17.98      2.50       0.0        0.0        0.0
J_0024_OUT       17.73      2.50       0.0        0.0        0.0
J_0025_IN        11.61      2.50       0.0        0.0        0.0
J_0025_OUT       4.08       2.50       0.0        0.0        0.0
J_0026_IN        7.78       2.50       0.0        0.0        0.0
J_0026_OUT       6.71       2.50       0.0        0.0        0.0
J_0027_IN        2.29       2.50       0.0        0.0        0.0
J_0027_OUT       2.09       2.50       0.0        0.0        0.0
J_0028_IN        5.11       2.50       0.0        0.0        0.0
J_0028_OUT       4.59       2.50       0.0        0.0        0.0
J_0029_IN        6.77       2.50       0.0        0.0        0.0
J_0029_OUT       4.59       2.50       0.0        0.0        0.0
J_0030_IN        6.18       2.50       0.0        0.0        0.0
J_0030_OUT       5.00       2.50       0.0        0.0        0.0
J_0031_IN        10.57      2.50       0.0        0.0        0.0
J_0031_OUT       4.05       2.50       0.0        0.0        0.0
J_0032_IN        6.90       2.50       0.0        0.0        0.0
J_0032_OUT       2.12       2.50       0.0        0.0        0.0
J_0033_IN        4.86       2.50       0.0        0.0        0.0
J_0034_IN        11.96      2.50       0.0        0.0        0.0
J_0034_OUT       11.46      2.50       0.0        0.0        0.0
J_0035_IN        9.49       2.50       0.0        0.0        0.0
J_0035_OUT       5.94       2.50       0.0        0.0        0.0
J_0036_IN        9.25       2.50       0.0        0.0        0.0
J_0036_OUT       5.68       2.50       0.0        0.0        0.0
J_0037_IN        13.35      2.50       0.0        0.0        0.0
J_0037_OUT       8.99       2.50       0.0        0.0        0.0
J_0038_IN        5.31       2.50       0.0        0.0        0.0
J_0038_OUT       2.00       2.50       0.0        0.0        0.0
J_0039_IN        6.82       2.50       0.0        0.0        0.0
J_0039_OUT       4.11       2.50       0.0        0.0        0.0
J_0040_IN        5.55       2.50       0.0        0.0        0.0
J_0040_OUT       5.35       2.50       0.0        0.0        0.0
J_0041_IN        10.67      2.50       0.0        0.0        0.0
J_0041_OUT       0.50       2.50       0.0        0.0        0.0
J_0042_IN        6.99       2.50       0.0        0.0        0.0
J_0042_OUT       6.79       2.50       0.0        0.0        0.0
J_0043_IN        6.17       2.50       0.0        0.0        0.0
J_0043_OUT       2.21       2.50       0.0        0.0        0.0
J_0044_IN        6.81       2.50       0.0        0.0        0.0
J_0044_OUT       6.18       2.50       0.0        0.0        0.0
J_0045_IN        5.39       2.50       0.0        0.0        0.0
J_0045_OUT       5.19       2.50       0.0        0.0        0.0
J_0046_IN        16.24      2.50       0.0        0.0        0.0
J_0046_OUT       5.70       2.50       0.0        0.0        0.0
J_0047_IN        4.71       2.50       0.0        0.0        0.0
J_0047_OUT       4.51       2.50       0.0        0.0        0.0
J_0048_IN        16.40      2.50       0.0        0.0        0.0
J_0048_OUT       4.86       2.50       0.0        0.0        0.0
J_0049_IN        4.86       2.50       0.0        0.0        0.0
J_0049_OUT       4.16       2.50       0.0        0.0        0.0
J_0050_IN        6.65       2.50       0.0        0.0        0.0
J_0050_OUT       4.56       2.50       0.0        0.0        0.0
J_0051_IN        8.61       2.50       0.0        0.0        0.0
J_0051_OUT       4.68       2.50       0.0        0.0        0.0
J_0052_IN        17.78      2.50       0.0        0.0        0.0
J_0052_OUT       14.76      2.50       0.0        0.0        0.0
J_0053_IN        4.03       2.50       0.0        0.0        0.0
J_0053_OUT       3.83       2.50       0.0        0.0        0.0
J_0054_IN        34.57      2.50       0.0        0.0        0.0
J_0054_OUT       14.40      2.50       0.0        0.0        0.0
J_0055_IN        133.68     2.50       0.0        0.0        0.0
J_0055_OUT       44.42      2.50       0.0        0.0        0.0
J_0056_IN        4.54       2.50       0.0        0.0        0.0
J_0057_IN        6.18       2.50       0.0        0.0        0.0
J_0057_OUT       6.17       2.50       0.0        0.0        0.0
J_0058_IN        6.03       2.50       0.0        0.0        0.0
J_0058_OUT       6.00       2.50       0.0        0.0        0.0
J_0059_IN        9.82       2.50       0.0        0.0        0.0
J_0059_OUT       5.68       2.50       0.0        0.0        0.0
J_0060_IN        157.67     2.50       0.0        0.0        0.0
J_0060_OUT       19.96      2.50       0.0        0.0        0.0
J_0061_IN        10.18      2.50       0.0        0.0        0.0
J_0061_OUT       7.59       2.50       0.0        0.0        0.0
J_0062_IN        46.59      2.50       0.0        0.0        0.0
J_0062_OUT       28.08      2.50       0.0        0.0        0.0
J_0063_IN        10.55      2.50       0.0        0.0        0.0
J_0063_OUT       1.51       2.50       0.0        0.0        0.0
J_0064_IN        6.27       2.50       0.0        0.0        0.0
J_0064_OUT       2.21       2.50       0.0        0.0        0.0
J_0065_IN        14.77      2.50       0.0        0.0        0.0
J_0065_OUT       6.60       2.50       0.0        0.0        0.0
J_0066_IN        18.77      2.50       0.0        0.0        0.0
J_0066_OUT       7.95       2.50       0.0        0.0        0.0
J_0067_IN        19.02      2.50       0.0        0.0        0.0
J_0067_OUT       13.65      2.50       0.0        0.0        0.0
J_0068_IN        5.09       2.50       0.0        0.0        0.0
J_0068_OUT       3.71       2.50       0.0        0.0        0.0
J_0069_IN        8.71       2.50       0.0        0.0        0.0
J_0069_OUT       2.61       2.50       0.0        0.0        0.0
J_0070_IN        8.85       2.50       0.0        0.0        0.0
J_0070_OUT       0.47       2.50       0.0        0.0        0.0
J_0071_IN        11.32      2.50       0.0        0.0        0.0
J_0071_OUT       2.00       2.50       0.0        0.0        0.0
J_0072_IN        4.26       2.50       0.0        0.0        0.0
J_0072_OUT       0.08       2.50       0.0        0.0        0.0
J_0073_IN        4.53       2.50       0.0        0.0        0.0
J_0073_OUT       4.26       2.50       0.0        0.0        0.0
J_0074_IN        4.10       2.50       0.0        0.0        0.0
J_0074_OUT       3.90       2.50       0.0        0.0        0.0
J_0075_IN        112.00     2.50       0.0        0.0        0.0
J_0075_OUT       111.80     2.50       0.0        0.0        0.0
J_0076_IN        236.02     2.50       0.0        0.0        0.0
J_0076_OUT       107.69     2.50       0.0        0.0        0.0
J_0077_IN        4.25       2.50       0.0        0.0        0.0
J_0077_OUT       0.00       2.50       0.0        0.0        0.0
J_0078_IN        7.27       2.50       0.0        0.0        0.0
J_0078_OUT       3.38       2.50       0.0        0.0        0.0
J_0079_IN        5.44       2.50       0.0        0.0        0.0
J_0079_OUT       5.24       2.50       0.0        0.0        0.0
J_0080_IN        0.00       2.50       0.0        0.0        0.0
J_0080_OUT       0.00       2.50       0.0        0.0        0.0
J_0081_IN        89.90      2.50       0.0        0.0        0.0
J_0081_OUT       2.00       2.50       0.0        0.0        0.0
J_0082_IN        241.38     2.50       0.0        0.0        0.0
J_0082_OUT       112.00     2.50       0.0        0.0        0.0
J_0083_IN        74.52      2.50       0.0        0.0        0.0
J_0083_OUT       56.34      2.50       0.0        0.0        0.0
J_0084_IN        2.00       2.50       0.0        0.0        0.0
J_0084_OUT       0.00       2.50       0.0        0.0        0.0
J_0085_IN        6.60       2.50       0.0        0.0        0.0
J_0085_OUT       6.40       2.50       0.0        0.0        0.0
J_0086_IN        44.92      2.50       0.0        0.0        0.0
J_0086_OUT       32.74      2.50       0.0        0.0        0.0
J_0087_IN        9.48       2.50       0.0        0.0        0.0
J_0087_OUT       7.71       2.50       0.0        0.0        0.0
J_0088_IN        18.67      2.50       0.0        0.0        0.0
J_0088_OUT       16.43      2.50       0.0        0.0        0.0
J_0089_IN        18.13      2.50       0.0        0.0        0.0
J_0089_OUT       15.34      2.50       0.0        0.0        0.0
J_0090_IN        14.97      2.50       0.0        0.0        0.0
J_0090_OUT       14.77      2.50       0.0        0.0        0.0
J_0091_IN        15.15      2.50       0.0        0.0        0.0
J_0091_OUT       13.06      2.50       0.0        0.0        0.0
J_0092_IN        3.05       2.50       0.0        0.0        0.0
J_0092_OUT       0.50       2.50       0.0        0.0        0.0
J_0093_IN        5.68       2.50       0.0        0.0        0.0
J_0093_OUT       5.02       2.50       0.0        0.0        0.0
J_0094_IN        5.70       2.50       0.0        0.0        0.0
J_0094_OUT       5.50       2.50       0.0        0.0        0.0
J_0095_IN        8.55       2.50       0.0        0.0        0.0
J_0095_OUT       4.68       2.50       0.0        0.0        0.0
J_0096_IN        2.26       2.50       0.0        0.0        0.0
J_0096_OUT       0.51       2.50       0.0        0.0        0.0
J_0097_IN        9.40       2.50       0.0        0.0        0.0
J_0097_OUT       0.50       2.50       0.0        0.0        0.0
J_0098_IN        9.56       2.50       0.0        0.0        0.0
J_0098_OUT       2.26       2.50       0.0        0.0        0.0
J_0099_IN        2.21       2.50       0.0        0.0        0.0
J_0099_OUT       0.02       2.50       0.0        0.0        0.0
J_0100_IN        7.36       2.50       0.0        0.0        0.0
J_0100_OUT       3.96       2.50       0.0        0.0        0.0
J_0101_IN        9.17       2.50       0.0        0.0        0.0
J_0101_OUT       0.00       2.50       0.0        0.0        0.0
J_0102_IN        5.78       2.50       0.0        0.0        0.0
J_0102_OUT       0.88       2.50       0.0        0.0        0.0
J_0103_IN        5.34       2.50       0.0        0.0        0.0
J_0103_OUT       5.14       2.50       0.0        0.0        0.0
J_0104_IN        6.02       2.50       0.0        0.0        0.0
J_0104_OUT       5.82       2.50       0.0        0.0        0.0
J_0105_IN        23.43      2.50       0.0        0.0        0.0
J_0105_OUT       4.10       2.50       0.0        0.0        0.0
J_0106_IN        3.66       2.50       0.0        0.0        0.0
J_0106_OUT       3.46       2.50       0.0        0.0        0.0
J_0107_IN        5.97       2.50       0.0        0.0        0.0
J_0107_OUT       4.11       2.50       0.0        0.0        0.0
J_0108_IN        5.83       2.50       0.0        0.0        0.0
J_0108_OUT       0.00       2.50       0.0        0.0        0.0
J_0109_IN        7.64       2.50       0.0        0.0        0.0
J_0109_OUT       7.44       2.50       0.0        0.0        0.0
J_0110_IN        3.18       2.50       0.0        0.0        0.0
J_0110_OUT       2.76       2.50       0.0        0.0        0.0
J_0111_IN        7.19       2.50       0.0        0.0        0.0
J_0111_OUT       3.50       2.50       0.0        0.0        0.0
J_0112_IN        6.51       2.50       0.0        0.0        0.0
J_0112_OUT       0.00       2.50       0.0        0.0        0.0
J_0113_IN        17.88      2.50       0.0        0.0        0.0
J_0113_OUT       11.98      2.50       0.0        0.0        0.0
J_0114_IN        11.25      2.50       0.0        0.0        0.0
J_0114_OUT       9.78       2.50       0.0        0.0        0.0
J_0115_IN        11.98      2.50       0.0        0.0        0.0
J_0115_OUT       11.25      2.50       0.0        0.0        0.0
J_0116_IN        5.30       2.50       0.0        0.0        0.0
J_0116_OUT       5.10       2.50       0.0        0.0        0.0
J_0117_IN        4.68       2.50       0.0        0.0        0.0
J_0117_OUT       3.05       2.50       0.0        0.0        0.0
J_0118_IN        9.55       2.50       0.0        0.0        0.0
J_0118_OUT       2.66       2.50       0.0        0.0        0.0
J_0119_IN        6.50       2.50       0.0        0.0        0.0
J_0119_OUT       0.00       2.50       0.0        0.0        0.0
J_0120_IN        18.59      2.50       0.0        0.0        0.0
J_0120_OUT       13.93      2.50       0.0        0.0        0.0
J_0121_IN        13.25      2.50       0.0        0.0        0.0
J_0121_OUT       11.11      2.50       0.0        0.0        0.0
J_0122_IN        19.81      2.50       0.0        0.0        0.0
J_0122_OUT       12.02      2.50       0.0        0.0        0.0
J_0123_IN        5.12       2.50       0.0        0.0        0.0
J_0123_OUT       0.50       2.50       0.0        0.0        0.0
J_0124_IN        9.09       2.50       0.0        0.0        0.0
J_0124_OUT       0.00       2.50       0.0        0.0        0.0
J_0125_IN        5.24       2.50       0.0        0.0        0.0
J_0125_OUT       0.00       2.50       0.0        0.0        0.0
J_0126_IN        4.41       2.50       0.0        0.0        0.0
J_0126_OUT       4.21       2.50       0.0        0.0        0.0
J_0127_IN        5.46       2.50       0.0        0.0        0.0
J_0127_OUT       1.30       2.50       0.0        0.0        0.0
J_0128_IN        3.86       2.50       0.0        0.0        0.0
J_0128_OUT       0.00       2.50       0.0        0.0        0.0
J_0129_IN        7.45       2.50       0.0        0.0        0.0
J_0129_OUT       2.51       2.50       0.0        0.0        0.0
J_0130_IN        5.49       2.50       0.0        0.0        0.0
J_0130_OUT       3.25       2.50       0.0        0.0        0.0
J_0131_IN        8.08       2.50       0.0        0.0        0.0
J_0131_OUT       7.88       2.50       0.0        0.0        0.0
J_0132_IN        3.63       2.50       0.0        0.0        0.0
J_0132_OUT       3.48       2.50       0.0        0.0        0.0
J_0133_IN        5.95       2.50       0.0        0.0        0.0
J_0133_OUT       5.75       2.50       0.0        0.0        0.0
J_0134_IN        15.52      2.50       0.0        0.0        0.0
J_0134_OUT       5.16       2.50       0.0        0.0        0.0
J_0135_IN        4.10       2.50       0.0        0.0        0.0
J_0135_OUT       0.52       2.50       0.0        0.0        0.0
J_0136_IN        4.98       2.50       0.0        0.0        0.0
J_0136_OUT       0.51       2.50       0.0        0.0        0.0
J_0137_IN        4.69       2.50       0.0        0.0        0.0
J_0137_OUT       2.00       2.50       0.0        0.0        0.0
J_0138_IN        11.17      2.50       0.0        0.0        0.0
J_0138_OUT       0.47       2.50       0.0        0.0        0.0
J_0139_IN        19.87      2.50       0.0        0.0        0.0
J_0139_OUT       19.67      2.50       0.0        0.0        0.0
J_0140_IN        14.95      2.50       0.0        0.0        0.0
J_0140_OUT       8.01       2.50       0.0        0.0        0.0
J_0141_IN        8.01       2.50       0.0        0.0        0.0
J_0141_OUT       7.81       2.50       0.0        0.0        0.0
J_0142_IN        4.56       2.50       0.0        0.0        0.0
J_0142_OUT       4.36       2.50       0.0        0.0        0.0
J_0143_IN        6.54       2.50       0.0        0.0        0.0
J_0143_OUT       6.34       2.50       0.0        0.0        0.0
J_0144_IN        0.00       2.50       0.0        0.0        0.0
J_0144_OUT       0.50       2.50       0.0        0.0        0.0
J_0145_IN        4.16       2.50       0.0        0.0        0.0
J_0145_OUT       3.62       2.50       0.0        0.0        0.0
J_0146_IN        7.36       2.50       0.0        0.0        0.0
J_0146_OUT       0.00       2.50       0.0        0.0        0.0
J_0147_IN        32.33      2.50       0.0        0.0        0.0
J_0147_OUT       16.62      2.50       0.0        0.0        0.0
J_0148_IN        15.78      2.50       0.0        0.0        0.0
J_0148_OUT       15.25      2.50       0.0        0.0        0.0
J_0149_IN        6.78       2.50       0.0        0.0        0.0
J_0149_OUT       1.11       2.50       0.0        0.0        0.0
J_0150_IN        13.73      2.50       0.0        0.0        0.0
J_0150_OUT       10.10      2.50       0.0        0.0        0.0
J_0151_IN        61.22      2.50       0.0        0.0        0.0
J_0151_OUT       21.34      2.50       0.0        0.0        0.0
J_0152_IN        18.87      2.50       0.0        0.0        0.0
J_0152_OUT       16.90      2.50       0.0        0.0        0.0
J_0153_IN        13.21      2.50       0.0        0.0        0.0
J_0153_OUT       9.74       2.50       0.0        0.0        0.0
J_0154_IN        13.21      2.50       0.0        0.0        0.0
J_0154_OUT       13.01      2.50       0.0        0.0        0.0
J_0155_IN        17.37      2.50       0.0        0.0        0.0
J_0155_OUT       17.17      2.50       0.0        0.0        0.0
J_0156_IN        22.91      2.50       0.0        0.0        0.0
J_0156_OUT       22.71      2.50       0.0        0.0        0.0
J_0157_IN        23.23      2.50       0.0        0.0        0.0
J_0157_OUT       23.05      2.50       0.0        0.0        0.0
J_0158_IN        112.00     2.50       0.0        0.0        0.0
J_0158_OUT       66.66      2.50       0.0        0.0        0.0
J_0159_IN        3.96       2.50       0.0        0.0        0.0
J_0159_OUT       3.76       2.50       0.0        0.0        0.0
J_0160_IN        9.74       2.50       0.0        0.0        0.0
J_0160_OUT       1.81       2.50       0.0        0.0        0.0
J_0161_IN        7.85       2.50       0.0        0.0        0.0
J_0161_OUT       7.65       2.50       0.0        0.0        0.0
J_0162_IN        8.12       2.50       0.0        0.0        0.0
J_0162_OUT       7.46       2.50       0.0        0.0        0.0
J_0163_IN        3.23       2.50       0.0        0.0        0.0
J_0163_OUT       3.03       2.50       0.0        0.0        0.0
J_0164_IN        9.47       2.50       0.0        0.0        0.0
J_0164_OUT       8.51       2.50       0.0        0.0        0.0
J_0165_IN        3.62       2.50       0.0        0.0        0.0
J_0165_OUT       0.00       2.50       0.0        0.0        0.0
J_0166_IN        9.25       2.50       0.0        0.0        0.0
J_0166_OUT       3.94       2.50       0.0        0.0        0.0
J_0167_IN        2.36       2.50       0.0        0.0        0.0
J_0167_OUT       0.00       2.50       0.0        0.0        0.0
J_0168_IN        3.48       2.50       0.0        0.0        0.0
J_0168_OUT       3.28       2.50       0.0        0.0        0.0
J_0169_IN        6.10       2.50       0.0        0.0        0.0
J_0169_OUT       5.16       2.50       0.0        0.0        0.0
J_0170_IN        3.87       2.50       0.0        0.0        0.0
J_0170_OUT       1.35       2.50       0.0        0.0        0.0
J_0171_IN        1.51       2.50       0.0        0.0        0.0
J_0171_OUT       1.31       2.50       0.0        0.0        0.0
J_0172_IN        1.51       2.50       0.0        0.0        0.0
J_0172_OUT       1.31       2.50       0.0        0.0        0.0
J_0173_IN        0.07       2.50       0.0        0.0        0.0
J_0173_OUT       0.00       2.50       0.0        0.0        0.0
J_0174_IN        0.08       2.50       0.0        0.0        0.0
J_0174_OUT       0.07       2.50       0.0        0.0        0.0
J_0175_IN        0.08       2.50       0.0        0.0        0.0
J_0175_OUT       0.07       2.50       0.0        0.0        0.0
J_0176_IN        56.34      2.50       0.0        0.0        0.0
J_0176_OUT       52.50      2.50       0.0        0.0        0.0
J_0177_IN        1.73       2.50       0.0        0.0        0.0
J_0177_OUT       1.53       2.50       0.0        0.0        0.0
J_0178_IN        3.25       2.50       0.0        0.0        0.0
J_0178_OUT       3.05       2.50       0.0        0.0        0.0
J_0179_IN        6.45       2.50       0.0        0.0        0.0
J_0179_OUT       0.50       2.50       0.0        0.0        0.0
J_0180_IN        2.82       2.50       0.0        0.0        0.0
J_0180_OUT       2.62       2.50       0.0        0.0        0.0
J_0181_IN        4.16       2.50       0.0        0.0        0.0
J_0181_OUT       3.05       2.50       0.0        0.0        0.0
J_0182_IN        0.50       2.50       0.0        0.0        0.0
J_0182_OUT       0.50       2.50       0.0        0.0        0.0
J_0183_IN        3.25       2.50       0.0        0.0        0.0
J_0183_OUT       3.05       2.50       0.0        0.0        0.0
J_0184_IN        112.00     2.50       0.0        0.0        0.0
J_0184_OUT       111.80     2.50       0.0        0.0        0.0
J_0185_IN        3.28       2.50       0.0        0.0        0.0
J_0185_OUT       0.51       2.50       0.0        0.0        0.0
J_0186_IN        3.45       2.50       0.0        0.0        0.0
J_0186_OUT       0.50       2.50       0.0        0.0        0.0
J_0187_IN        2.82       2.50       0.0        0.0        0.0
J_0187_OUT       1.04       2.50       0.0        0.0        0.0
J_0188_IN        3.45       2.50       0.0        0.0        0.0
J_0188_OUT       3.25       2.50       0.0        0.0        0.0
J_0189_IN        7.39       2.50       0.0        0.0        0.0
J_0189_OUT       0.50       2.50       0.0        0.0        0.0
J_0190_IN        2.58       2.50       0.0        0.0        0.0
J_0190_OUT       2.38       2.50       0.0        0.0        0.0
J_0191_IN        3.82       2.50       0.0        0.0        0.0
J_0191_OUT       3.05       2.50       0.0        0.0        0.0
J_0192_IN        2.90       2.50       0.0        0.0        0.0
J_0192_OUT       0.64       2.50       0.0        0.0        0.0
J_0193_IN        6.48       2.50       0.0        0.0        0.0
J_0193_OUT       5.31       2.50       0.0        0.0        0.0
J_0194_IN        1.61       2.50       0.0        0.0        0.0
J_0194_OUT       0.61       2.50       0.0        0.0        0.0
J_0195_IN        7.10       2.50       0.0        0.0        0.0
J_0195_OUT       3.52       2.50       0.0        0.0        0.0
J_0196_IN        5.12       2.50       0.0        0.0        0.0
J_0196_OUT       4.97       2.50       0.0        0.0        0.0
J_0197_IN        3.58       2.50       0.0        0.0        0.0
J_0197_OUT       3.38       2.50       0.0        0.0        0.0
J_0198_IN        6.63       2.50       0.0        0.0        0.0
J_0198_OUT       5.57       2.50       0.0        0.0        0.0
J_0199_IN        2.67       2.50       0.0        0.0        0.0
J_0199_OUT       2.47       2.50       0.0        0.0        0.0
J_0200_IN        2.35       2.50       0.0        0.0        0.0
J_0200_OUT       2.28       2.50       0.0        0.0        0.0
J_0201_IN        4.56       2.50       0.0        0.0        0.0
J_0201_OUT       1.01       2.50       0.0        0.0        0.0
J_0202_IN        5.36       2.50       0.0        0.0        0.0
J_0202_OUT       0.50       2.50       0.0        0.0        0.0
J_0203_IN        3.69       2.50       0.0        0.0        0.0
J_0203_OUT       3.63       2.50       0.0        0.0        0.0
J_0204_IN        3.05       2.50       0.0        0.0        0.0
J_0204_OUT       1.93       2.50       0.0        0.0        0.0
J_0205_IN        4.33       2.50       0.0        0.0        0.0
J_0205_OUT       0.00       2.50       0.0        0.0        0.0
J_0206_IN        7.55       2.50       0.0        0.0        0.0
J_0206_OUT       0.00       2.50       0.0        0.0        0.0
J_0207_IN        7.33       2.50       0.0        0.0        0.0
J_0207_OUT       0.50       2.50       0.0        0.0        0.0
J_0208_IN        3.92       2.50       0.0        0.0        0.0
J_0208_OUT       3.72       2.50       0.0        0.0        0.0
J_0209_IN        6.06       2.50       0.0        0.0        0.0
J_0209_OUT       4.33       2.50       0.0        0.0        0.0
J_0210_IN        4.53       2.50       0.0        0.0        0.0
J_0210_OUT       1.72       2.50       0.0        0.0        0.0
J_0211_IN        8.46       2.50       0.0        0.0        0.0
J_0211_OUT       1.00       2.50       0.0        0.0        0.0
J_0212_IN        4.75       2.50       0.0        0.0        0.0
J_0212_OUT       4.57       2.50       0.0        0.0        0.0
J_0213_IN        2.60       2.50       0.0        0.0        0.0
J_0213_OUT       2.35       2.50       0.0        0.0        0.0
J_0214_IN        3.00       2.50       0.0        0.0        0.0
J_0214_OUT       0.50       2.50       0.0        0.0        0.0
J_0215_IN        2.79       2.50       0.0        0.0        0.0
J_0215_OUT       2.35       2.50       0.0        0.0        0.0
J_0216_IN        6.80       2.50       0.0        0.0        0.0
J_0216_OUT       5.90       2.50       0.0        0.0        0.0
J_0217_IN        4.87       2.50       0.0        0.0        0.0
J_0217_OUT       0.02       2.50       0.0        0.0        0.0
J_0218_IN        47.04      2.50       0.0        0.0        0.0
J_0218_OUT       38.85      2.50       0.0        0.0        0.0
J_0219_IN        5.70       2.50       0.0        0.0        0.0
J_0219_OUT       5.50       2.50       0.0        0.0        0.0
J_0220_IN        5.76       2.50       0.0        0.0        0.0
J_0220_OUT       4.55       2.50       0.0        0.0        0.0
J_0221_IN        5.98       2.50       0.0        0.0        0.0
J_0221_OUT       5.78       2.50       0.0        0.0        0.0
J_0222_IN        9.53       2.50       0.0        0.0        0.0
J_0222_OUT       4.90       2.50       0.0        0.0        0.0
J_0223_IN        5.33       2.50       0.0        0.0        0.0
J_0223_OUT       5.13       2.50       0.0        0.0        0.0
J_0224_IN        5.09       2.50       0.0        0.0        0.0
J_0224_OUT       4.89       2.50       0.0        0.0        0.0
J_0225_IN        6.19       2.50       0.0        0.0        0.0
J_0225_OUT       2.95       2.50       0.0        0.0        0.0
J_0226_IN        4.92       2.50       0.0        0.0        0.0
J_0226_OUT       0.00       2.50       0.0        0.0        0.0
J_0227_IN        4.81       2.50       0.0        0.0        0.0
J_0227_OUT       1.13       2.50       0.0        0.0        0.0
J_0228_IN        4.29       2.50       0.0        0.0        0.0
J_0228_OUT       0.00       2.50       0.0        0.0        0.0
J_0229_IN        3.85       2.50       0.0        0.0        0.0
J_0229_OUT       0.00       2.50       0.0        0.0        0.0
J_0230_IN        4.92       2.50       0.0        0.0        0.0
J_0230_OUT       1.00       2.50       0.0        0.0        0.0
J_0231_IN        5.55       2.50       0.0        0.0        0.0
J_0231_OUT       1.09       2.50       0.0        0.0        0.0
J_0232_IN        2.95       2.50       0.0        0.0        0.0
J_0232_OUT       1.19       2.50       0.0        0.0        0.0
J_0233_IN        3.80       2.50       0.0        0.0        0.0
J_0233_OUT       0.00       2.50       0.0        0.0        0.0
J_0234_IN        7.05       2.50       0.0        0.0        0.0
J_0234_OUT       4.46       2.50       0.0        0.0        0.0
J_0235_IN        7.72       2.50       0.0        0.0        0.0
J_0235_OUT       2.21       2.50       0.0        0.0        0.0
J_0236_IN        18.33      2.50       0.0        0.0        0.0
J_0236_OUT       1.66       2.50       0.0        0.0        0.0
J_0237_IN        8.69       2.50       0.0        0.0        0.0
J_0237_OUT       5.91       2.50       0.0        0.0        0.0
J_0238_IN        4.78       2.50       0.0        0.0        0.0
J_0238_OUT       3.36       2.50       0.0        0.0        0.0
J_0239_IN        5.21       2.50       0.0        0.0        0.0
J_0239_OUT       4.41       2.50       0.0        0.0        0.0
J_0240_IN        5.62       2.50       0.0        0.0        0.0
J_0240_OUT       1.11       2.50       0.0        0.0        0.0
J_0241_IN        4.13       2.50       0.0        0.0        0.0
J_0241_OUT       3.93       2.50       0.0        0.0        0.0
J_0242_IN        5.65       2.50       0.0        0.0        0.0
J_0242_OUT       5.45       2.50       0.0        0.0        0.0
J_0243_IN        6.19       2.50       0.0        0.0        0.0
J_0243_OUT       4.92       2.50       0.0        0.0        0.0
J_0244_IN        4.68       2.50       0.0        0.0        0.0
J_0244_OUT       0.11       2.50       0.0        0.0        0.0
J_0245_IN        2.76       2.50       0.0        0.0        0.0
J_0245_OUT       2.36       2.50       0.0        0.0        0.0
J_0246_IN        6.75       2.50       0.0        0.0        0.0
J_0246_OUT       4.71       2.50       0.0        0.0        0.0
J_0247_IN        9.57       2.50       0.0        0.0        0.0
J_0247_OUT       2.76       2.50       0.0        0.0        0.0
J_0248_IN        5.19       2.50       0.0        0.0        0.0
J_0248_OUT       4.99       2.50       0.0        0.0        0.0
J_0249_IN        7.26       2.50       0.0        0.0        0.0
J_0249_OUT       6.69       2.50       0.0        0.0        0.0
J_0250_IN        5.72       2.50       0.0        0.0        0.0
J_0250_OUT       5.52       2.50       0.0        0.0        0.0
J_0251_IN        6.19       2.50       0.0        0.0        0.0
J_0251_OUT       0.87       2.50       0.0        0.0        0.0
J_0252_IN        5.83       2.50       0.0        0.0        0.0
J_0252_OUT       5.63       2.50       0.0        0.0        0.0
J_0253_IN        6.42       2.50       0.0        0.0        0.0
J_0253_OUT       2.82       2.50       0.0        0.0        0.0
J_0254_IN        5.45       2.50       0.0        0.0        0.0
J_0254_OUT       5.09       2.50       0.0        0.0        0.0
J_0255_IN        6.85       2.50       0.0        0.0        0.0
J_0255_OUT       4.54       2.50       0.0        0.0        0.0
J_0256_IN        4.54       2.50       0.0        0.0        0.0
J_0256_OUT       4.34       2.50       0.0        0.0        0.0
J_0257_IN        15.53      2.50       0.0        0.0        0.0
J_0257_OUT       15.33      2.50       0.0        0.0        0.0
J_0258_IN        26.96      2.50       0.0        0.0        0.0
J_0258_OUT       22.52      2.50       0.0        0.0        0.0
J_0259_IN        16.37      2.50       0.0        0.0        0.0
J_0259_OUT       12.00      2.50       0.0        0.0        0.0
J_0260_IN        24.17      2.50       0.0        0.0        0.0
J_0260_OUT       23.97      2.50       0.0        0.0        0.0
J_0261_IN        20.56      2.50       0.0        0.0        0.0
J_0261_OUT       20.36      2.50       0.0        0.0        0.0
J_0262_IN        17.49      2.50       0.0        0.0        0.0
J_0262_OUT       17.29      2.50       0.0        0.0        0.0
J_0263_IN        8.07       2.50       0.0        0.0        0.0
J_0263_OUT       2.09       2.50       0.0        0.0        0.0
J_0264_IN        5.29       2.50       0.0        0.0        0.0
J_0264_OUT       3.83       2.50       0.0        0.0        0.0
J_0265_IN        5.48       2.50       0.0        0.0        0.0
J_0265_OUT       2.05       2.50       0.0        0.0        0.0
J_0266_IN        7.36       2.50       0.0        0.0        0.0
J_0266_OUT       2.09       2.50       0.0        0.0        0.0
J_0267_IN        6.12       2.50       0.0        0.0        0.0
J_0267_OUT       5.92       2.50       0.0        0.0        0.0
J_0268_IN        6.49       2.50       0.0        0.0        0.0
J_0268_OUT       6.29       2.50       0.0        0.0        0.0
J_0269_IN        7.01       2.50       0.0        0.0        0.0
J_0269_OUT       0.00       2.50       0.0        0.0        0.0
J_0270_IN        7.01       2.50       0.0        0.0        0.0
J_0270_OUT       5.31       2.50       0.0        0.0        0.0
J_0271_IN        4.49       2.50       0.0        0.0        0.0
J_0271_OUT       3.36       2.50       0.0        0.0        0.0
J_0272_IN        12.65      2.50       0.0        0.0        0.0
J_0272_OUT       8.99       2.50       0.0        0.0        0.0
J_0273_IN        5.31       2.50       0.0        0.0        0.0
J_0273_OUT       4.49       2.50       0.0        0.0        0.0
J_0274_IN        9.08       2.50       0.0        0.0        0.0
J_0274_OUT       6.10       2.50       0.0        0.0        0.0
J_0275_IN        7.48       2.50       0.0        0.0        0.0
J_0275_OUT       2.00       2.50       0.0        0.0        0.0
J_0276_IN        5.93       2.50       0.0        0.0        0.0
J_0276_OUT       3.95       2.50       0.0        0.0        0.0
J_0277_IN        9.87       2.50       0.0        0.0        0.0
J_0277_OUT       5.95       2.50       0.0        0.0        0.0
J_0278_IN        5.95       2.50       0.0        0.0        0.0
J_0278_OUT       5.75       2.50       0.0        0.0        0.0
J_0279_IN        4.46       2.50       0.0        0.0        0.0
J_0279_OUT       4.26       2.50       0.0        0.0        0.0
J_0280_IN        4.52       2.50       0.0        0.0        0.0
J_0280_OUT       3.23       2.50       0.0        0.0        0.0
J_0281_IN        4.11       2.50       0.0        0.0        0.0
J_0281_OUT       3.89       2.50       0.0        0.0        0.0
J_0282_IN        7.65       2.50       0.0        0.0        0.0
J_0282_OUT       5.72       2.50       0.0        0.0        0.0
J_0283_IN        9.22       2.50       0.0        0.0        0.0
J_0283_OUT       7.65       2.50       0.0        0.0        0.0
J_0284_IN        33.43      2.50       0.0        0.0        0.0
J_0284_OUT       19.73      2.50       0.0        0.0        0.0
J_0285_IN        10.96      2.50       0.0        0.0        0.0
J_0285_OUT       8.37       2.50       0.0        0.0        0.0
J_0286_IN        8.06       2.50       0.0        0.0        0.0
J_0286_OUT       7.86       2.50       0.0        0.0        0.0
J_0287_IN        3.71       2.50       0.0        0.0        0.0
J_0287_OUT       3.51       2.50       0.0        0.0        0.0
J_0288_IN        21.34      2.50       0.0        0.0        0.0
J_0288_OUT       12.55      2.50       0.0        0.0        0.0
J_0289_IN        6.53       2.50       0.0        0.0        0.0
J_0289_OUT       6.33       2.50       0.0        0.0        0.0
J_0290_IN        4.79       2.50       0.0        0.0        0.0
J_0290_OUT       4.59       2.50       0.0        0.0        0.0
J_0291_IN        8.75       2.50       0.0        0.0        0.0
J_0291_OUT       4.79       2.50       0.0        0.0        0.0
J_0292_IN        4.97       2.50       0.0        0.0        0.0
J_0292_OUT       4.77       2.50       0.0        0.0        0.0
J_0293_IN        43.22      2.50       0.0        0.0        0.0
J_0293_OUT       36.71      2.50       0.0        0.0        0.0
J_0294_IN        4.68       2.50       0.0        0.0        0.0
J_0294_OUT       0.00       2.50       0.0        0.0        0.0
J_0295_IN        4.79       2.50       0.0        0.0        0.0
J_0296_IN        7.87       2.50       0.0        0.0        0.0
J_0296_OUT       7.67       2.50       0.0        0.0        0.0
J_0297_IN        7.69       2.50       0.0        0.0        0.0
J_0297_OUT       7.19       2.50       0.0        0.0        0.0
J_0298_IN        0.12       2.50       0.0        0.0        0.0
J_0298_OUT       0.00       2.50       0.0        0.0        0.0
J_0299_IN        6.39       2.50       0.0        0.0        0.0
J_0299_OUT       4.03       2.50       0.0        0.0        0.0
J_0300_IN        6.99       2.50       0.0        0.0        0.0
J_0300_OUT       6.39       2.50       0.0        0.0        0.0
J_0301_IN        4.44       2.50       0.0        0.0        0.0
J_0301_OUT       4.24       2.50       0.0        0.0        0.0
J_0302_IN        4.64       2.50       0.0        0.0        0.0
J_0302_OUT       4.44       2.50       0.0        0.0        0.0
J_0303_IN        7.11       2.50       0.0        0.0        0.0
J_0303_OUT       4.51       2.50       0.0        0.0        0.0
J_0304_IN        11.34      2.50       0.0        0.0        0.0
J_0304_OUT       7.11       2.50       0.0        0.0        0.0
J_0305_IN        26.35      2.50       0.0        0.0        0.0
J_0305_OUT       8.19       2.50       0.0        0.0        0.0
J_0306_IN        3.88       2.50       0.0        0.0        0.0
J_0306_OUT       2.09       2.50       0.0        0.0        0.0
J_0307_IN        21.42      2.50       0.0        0.0        0.0
J_0307_OUT       18.81      2.50       0.0        0.0        0.0
J_0308_IN        3.34       2.50       0.0        0.0        0.0
J_0308_OUT       3.14       2.50       0.0        0.0        0.0
J_0309_IN        8.85       2.50       0.0        0.0        0.0
J_0309_OUT       7.24       2.50       0.0        0.0        0.0
J_0310_IN        5.54       2.50       0.0        0.0        0.0
J_0310_OUT       4.71       2.50       0.0        0.0        0.0
J_0311_IN        7.75       2.50       0.0        0.0        0.0
J_0311_OUT       5.54       2.50       0.0        0.0        0.0
J_0312_IN        2.98       2.50       0.0        0.0        0.0
J_0312_OUT       2.76       2.50       0.0        0.0        0.0
J_0313_IN        2.76       2.50       0.0        0.0        0.0
J_0313_OUT       2.61       2.50       0.0        0.0        0.0
J_0314_IN        3.55       2.50       0.0        0.0        0.0
J_0314_OUT       2.76       2.50       0.0        0.0        0.0
J_0315_IN        18.44      2.50       0.0        0.0        0.0
J_0315_OUT       9.35       2.50       0.0        0.0        0.0
J_0316_IN        21.06      2.50       0.0        0.0        0.0
J_0316_OUT       17.13      2.50       0.0        0.0        0.0
J_0317_IN        106.94     2.50       0.0        0.0        0.0
J_0317_OUT       58.73      2.50       0.0        0.0        0.0
J_0318_IN        91.40      2.50       0.0        0.0        0.0
J_0318_OUT       52.50      2.50       0.0        0.0        0.0
J_0319_IN        44.04      2.50       0.0        0.0        0.0
J_0319_OUT       38.85      2.50       0.0        0.0        0.0
J_0320_IN        43.31      2.50       0.0        0.0        0.0
J_0320_OUT       23.82      2.50       0.0        0.0        0.0
J_0321_IN        212.34     2.50       0.0        0.0        0.0
J_0321_OUT       74.16      2.50       0.0        0.0        0.0
J_0322_IN        404.15     2.50       0.0        0.0        0.0
J_0322_OUT       48.29      2.50       0.0        0.0        0.0
J_0323_IN        21.40      2.50       0.0        0.0        0.0
J_0323_OUT       14.40      2.50       0.0        0.0        0.0
J_0324_IN        90.05      2.50       0.0        0.0        0.0
J_0324_OUT       78.67      2.50       0.0        0.0        0.0
J_0325_IN        237.13     2.50       0.0        0.0        0.0
J_0325_OUT       73.58      2.50       0.0        0.0        0.0
J_0326_IN        39.34      2.50       0.0        0.0        0.0
J_0326_OUT       31.03      2.50       0.0        0.0        0.0
J_0327_IN        56.63      2.50       0.0        0.0        0.0
J_0327_OUT       44.42      2.50       0.0        0.0        0.0
J_0328_IN        14.40      2.50       0.0        0.0        0.0
J_0328_OUT       11.28      2.50       0.0        0.0        0.0
J_0329_IN        44.42      2.50       0.0        0.0        0.0
J_0329_OUT       34.57      2.50       0.0        0.0        0.0
J_0330_IN        44.84      2.50       0.0        0.0        0.0
J_0330_OUT       41.15      2.50       0.0        0.0        0.0
J_0331_IN        55.12      2.50       0.0        0.0        0.0
J_0331_OUT       37.64      2.50       0.0        0.0        0.0
J_0332_IN        38.59      2.50       0.0        0.0        0.0
J_0332_OUT       28.99      2.50       0.0        0.0        0.0
J_0333_IN        31.60      2.50       0.0        0.0        0.0
J_0333_OUT       27.01      2.50       0.0        0.0        0.0
J_0334_IN        8.41       2.50       0.0        0.0        0.0
J_0334_OUT       6.53       2.50       0.0        0.0        0.0
J_0335_IN        11.09      2.50       0.0        0.0        0.0
J_0335_OUT       8.41       2.50       0.0        0.0        0.0
J_0336_IN        32.74      2.50       0.0        0.0        0.0
J_0336_OUT       22.39      2.50       0.0        0.0        0.0
J_0337_IN        12.55      2.50       0.0        0.0        0.0
J_0337_OUT       11.32      2.50       0.0        0.0        0.0
J_0338_IN        14.82      2.50       0.0        0.0        0.0
J_0338_OUT       12.55      2.50       0.0        0.0        0.0
J_0339_IN        16.03      2.50       0.0        0.0        0.0
J_0339_OUT       15.83      2.50       0.0        0.0        0.0
J_0340_IN        3.13       2.50       0.0        0.0        0.0
J_0340_OUT       2.93       2.50       0.0        0.0        0.0
J_0341_IN        4.47       2.50       0.0        0.0        0.0
J_0341_OUT       3.13       2.50       0.0        0.0        0.0
J_0342_IN        17.81      2.50       0.0        0.0        0.0
J_0342_OUT       15.76      2.50       0.0        0.0        0.0
J_0343_IN        11.96      2.50       0.0        0.0        0.0
J_0343_OUT       11.76      2.50       0.0        0.0        0.0
J_0344_IN        16.90      2.50       0.0        0.0        0.0
J_0344_OUT       16.70      2.50       0.0        0.0        0.0
J_0345_IN        10.47      2.50       0.0        0.0        0.0
J_0345_OUT       10.26      2.50       0.0        0.0        0.0
J_0346_IN        10.26      2.50       0.0        0.0        0.0
J_0346_OUT       2.00       2.50       0.0        0.0        0.0
J_0347_IN        6.60       2.50       0.0        0.0        0.0
J_0347_OUT       5.78       2.50       0.0        0.0        0.0
J_0348_IN        4.38       2.50       0.0        0.0        0.0
J_0348_OUT       1.03       2.50       0.0        0.0        0.0
J_0349_IN        8.94       2.50       0.0        0.0        0.0
J_0349_OUT       8.74       2.50       0.0        0.0        0.0
J_0350_IN        56.66      2.50       0.0        0.0        0.0
J_0350_OUT       46.16      2.50       0.0        0.0        0.0
J_0351_IN        64.67      2.50       0.0        0.0        0.0
J_0351_OUT       40.24      2.50       0.0        0.0        0.0
J_0352_IN        0.00       2.50       0.0        0.0        0.0
J_0352_OUT       0.50       2.50       0.0        0.0        0.0
J_0353_IN        7.82       2.50       0.0        0.0        0.0
J_0353_OUT       0.00       2.50       0.0        0.0        0.0
J_0354_IN        6.83       2.50       0.0        0.0        0.0
J_0354_OUT       0.00       2.50       0.0        0.0        0.0
J_0355_IN        7.75       2.50       0.0        0.0        0.0
J_0355_OUT       0.00       2.50       0.0        0.0        0.0
J_0356_IN        8.00       2.50       0.0        0.0        0.0
J_0356_OUT       0.00       2.50       0.0        0.0        0.0
J_0357_IN        2.17       2.50       0.0        0.0        0.0
J_0357_OUT       0.00       2.50       0.0        0.0        0.0
J_0358_IN        0.82       2.50       0.0        0.0        0.0
J_0358_OUT       0.00       2.50       0.0        0.0        0.0
J_0359_IN        0.84       2.50       0.0        0.0        0.0
J_0359_OUT       0.00       2.50       0.0        0.0        0.0
J_0360_IN        4.37       2.50       0.0        0.0        0.0
J_0360_OUT       0.00       2.50       0.0        0.0        0.0
J_0361_IN        3.93       2.50       0.0        0.0        0.0
J_0361_OUT       3.81       2.50       0.0        0.0        0.0
J_0362_IN        2.92       2.50       0.0        0.0        0.0
J_0362_OUT       2.72       2.50       0.0        0.0        0.0
J_0363_IN        3.36       2.50       0.0        0.0        0.0
J_0363_OUT       3.16       2.50       0.0        0.0        0.0
J_0364_IN        3.61       2.50       0.0        0.0        0.0
J_0364_OUT       2.83       2.50       0.0        0.0        0.0
J_0365_IN        3.46       2.50       0.0        0.0        0.0
J_0365_OUT       3.26       2.50       0.0        0.0        0.0
J_0366_IN        6.71       2.50       0.0        0.0        0.0
J_0366_OUT       6.51       2.50       0.0        0.0        0.0
J_0367_IN        7.13       2.50       0.0        0.0        0.0
J_0367_OUT       6.06       2.50       0.0        0.0        0.0
J_0368_IN        6.06       2.50       0.0        0.0        0.0
J_0368_OUT       5.65       2.50       0.0        0.0        0.0
J_0369_IN        5.65       2.50       0.0        0.0        0.0
J_0369_OUT       4.33       2.50       0.0        0.0        0.0
J_0370_IN        19.63      2.50       0.0        0.0        0.0
J_0370_OUT       18.87      2.50       0.0        0.0        0.0
J_0371_IN        43.26      2.50       0.0        0.0        0.0
J_0371_OUT       36.16      2.50       0.0        0.0        0.0
J_0372_IN        226.95     2.50       0.0        0.0        0.0
J_0372_OUT       75.19      2.50       0.0        0.0        0.0
J_0373_IN        11.56      2.50       0.0        0.0        0.0
J_0373_OUT       9.56       2.50       0.0        0.0        0.0
J_0374_IN        13.85      2.50       0.0        0.0        0.0
J_0374_OUT       11.56      2.50       0.0        0.0        0.0
J_0375_IN        5.98       2.50       0.0        0.0        0.0
J_0375_OUT       5.43       2.50       0.0        0.0        0.0
J_0376_IN        5.91       2.50       0.0        0.0        0.0
J_0376_OUT       3.56       2.50       0.0        0.0        0.0
J_0377_IN        4.46       2.50       0.0        0.0        0.0
J_0377_OUT       3.95       2.50       0.0        0.0        0.0
J_0378_IN        3.95       2.50       0.0        0.0        0.0
J_0378_OUT       2.85       2.50       0.0        0.0        0.0
J_0379_IN        2.12       2.50       0.0        0.0        0.0
J_0379_OUT       0.91       2.50       0.0        0.0        0.0
J_0380_IN        4.08       2.50       0.0        0.0        0.0
J_0380_OUT       0.11       2.50       0.0        0.0        0.0
J_0381_IN        4.70       2.50       0.0        0.0        0.0
J_0381_OUT       0.00       2.50       0.0        0.0        0.0
J_0382_IN        42.76      2.50       0.0        0.0        0.0
J_0382_OUT       38.68      2.50       0.0        0.0        0.0
J_0383_IN        52.50      2.50       0.0        0.0        0.0
J_0383_OUT       52.30      2.50       0.0        0.0        0.0
J_0384_IN        58.82      2.50       0.0        0.0        0.0
J_0384_OUT       34.35      2.50       0.0        0.0        0.0
J_0385_IN        10.53      2.50       0.0        0.0        0.0
J_0385_OUT       8.69       2.50       0.0        0.0        0.0
J_0386_IN        14.05      2.50       0.0        0.0        0.0
J_0386_OUT       10.53      2.50       0.0        0.0        0.0
J_0387_IN        8.01       2.50       0.0        0.0        0.0
J_0387_OUT       5.86       2.50       0.0        0.0        0.0
J_0388_IN        6.53       2.50       0.0        0.0        0.0
J_0388_OUT       0.00       2.50       0.0        0.0        0.0
J_0389_IN        6.29       2.50       0.0        0.0        0.0
J_0389_OUT       5.85       2.50       0.0        0.0        0.0
J_0390_IN        9.81       2.50       0.0        0.0        0.0
J_0390_OUT       9.61       2.50       0.0        0.0        0.0
J_0391_IN        23.78      2.50       0.0        0.0        0.0
J_0391_OUT       19.13      2.50       0.0        0.0        0.0
J_0392_IN        23.82      2.50       0.0        0.0        0.0
J_0392_OUT       23.78      2.50       0.0        0.0        0.0
J_0393_IN        9.08       2.50       0.0        0.0        0.0
J_0393_OUT       8.88       2.50       0.0        0.0        0.0
J_0394_IN        9.08       2.50       0.0        0.0        0.0
J_0394_OUT       2.00       2.50       0.0        0.0        0.0
J_0395_IN        15.65      2.50       0.0        0.0        0.0
J_0395_OUT       13.35      2.50       0.0        0.0        0.0
J_0396_IN        16.07      2.50       0.0        0.0        0.0
J_0396_OUT       15.65      2.50       0.0        0.0        0.0
J_0397_IN        14.76      2.50       0.0        0.0        0.0
J_0397_OUT       14.56      2.50       0.0        0.0        0.0
J_0398_IN        17.24      2.50       0.0        0.0        0.0
J_0398_OUT       14.76      2.50       0.0        0.0        0.0
J_0399_IN        157.67     2.50       0.0        0.0        0.0
J_0399_OUT       157.47     2.50       0.0        0.0        0.0
J_0400_IN        160.70     2.50       0.0        0.0        0.0
J_0400_OUT       157.67     2.50       0.0        0.0        0.0
J_0401_IN        100.38     2.50       0.0        0.0        0.0
J_0401_OUT       89.90      2.50       0.0        0.0        0.0
J_0402_IN        4.17       2.50       0.0        0.0        0.0
J_0402_OUT       2.90       2.50       0.0        0.0        0.0
J_0403_IN        4.37       2.50       0.0        0.0        0.0
J_0403_OUT       4.17       2.50       0.0        0.0        0.0
J_0404_IN        5.18       2.50       0.0        0.0        0.0
J_0404_OUT       4.37       2.50       0.0        0.0        0.0
J_0405_IN        4.46       2.50       0.0        0.0        0.0
J_0405_OUT       4.26       2.50       0.0        0.0        0.0
J_0406_IN        4.51       2.50       0.0        0.0        0.0
J_0406_OUT       4.46       2.50       0.0        0.0        0.0
J_0407_IN        63.04      2.50       0.0        0.0        0.0
J_0407_OUT       56.66      2.50       0.0        0.0        0.0
J_0408_IN        73.37      2.50       0.0        0.0        0.0
J_0408_OUT       63.04      2.50       0.0        0.0        0.0
J_0409_IN        48.29      2.50       0.0        0.0        0.0
J_0409_OUT       47.91      2.50       0.0        0.0        0.0
J_0410_IN        47.91      2.50       0.0        0.0        0.0
J_0410_OUT       40.49      2.50       0.0        0.0        0.0
J_0411_IN        18.33      2.50       0.0        0.0        0.0
J_0411_OUT       18.13      2.50       0.0        0.0        0.0
J_0412_IN        25.18      2.50       0.0        0.0        0.0
J_0412_OUT       18.33      2.50       0.0        0.0        0.0
J_0413_IN        36.24      2.50       0.0        0.0        0.0
J_0413_OUT       30.98      2.50       0.0        0.0        0.0
J_0414_IN        36.16      2.50       0.0        0.0        0.0
J_0414_OUT       35.96      2.50       0.0        0.0        0.0
J_0415_IN        2.70       2.50       0.0        0.0        0.0
J_0415_OUT       2.50       2.50       0.0        0.0        0.0
J_0416_IN        5.72       2.50       0.0        0.0        0.0
J_0416_OUT       2.70       2.50       0.0        0.0        0.0
J_0417_IN        9.36       2.50       0.0        0.0        0.0
J_0417_OUT       7.65       2.50       0.0        0.0        0.0
J_0418_IN        8.43       2.50       0.0        0.0        0.0
J_0418_OUT       8.23       2.50       0.0        0.0        0.0
J_0419_IN        26.31      2.50       0.0        0.0        0.0
J_0419_OUT       26.25      2.50       0.0        0.0        0.0
J_0420_IN        38.85      2.50       0.0        0.0        0.0
J_0420_OUT       26.31      2.50       0.0        0.0        0.0
J_0421_IN        14.05      2.50       0.0        0.0        0.0
J_0421_OUT       13.85      2.50       0.0        0.0        0.0
J_0422_IN        13.57      2.50       0.0        0.0        0.0
J_0422_OUT       13.37      2.50       0.0        0.0        0.0
J_0423_IN        22.39      2.50       0.0        0.0        0.0
J_0423_OUT       20.79      2.50       0.0        0.0        0.0
J_0424_IN        22.67      2.50       0.0        0.0        0.0
J_0424_OUT       16.03      2.50       0.0        0.0        0.0
J_0425_IN        33.30      2.50       0.0        0.0        0.0
J_0425_OUT       22.52      2.50       0.0        0.0        0.0
J_0426_IN        36.71      2.50       0.0        0.0        0.0
J_0426_OUT       33.30      2.50       0.0        0.0        0.0
J_0427_IN        72.75      2.50       0.0        0.0        0.0
J_0427_OUT       50.89      2.50       0.0        0.0        0.0
J_0428_IN        72.66      2.50       0.0        0.0        0.0
J_0428_OUT       72.46      2.50       0.0        0.0        0.0
J_0429_IN        12.29      2.50       0.0        0.0        0.0
J_0429_OUT       12.09      2.50       0.0        0.0        0.0
J_0430_IN        17.49      2.50       0.0        0.0        0.0
J_0430_OUT       12.29      2.50       0.0        0.0        0.0
J_0431_IN        7.64       2.50       0.0        0.0        0.0
J_0431_OUT       7.44       2.50       0.0        0.0        0.0
J_0432_IN        8.27       2.50       0.0        0.0        0.0
J_0432_OUT       7.64       2.50       0.0        0.0        0.0
J_0433_IN        74.52      2.50       0.0        0.0        0.0
J_0433_OUT       74.32      2.50       0.0        0.0        0.0
J_0434_IN        116.19     2.50       0.0        0.0        0.0
J_0434_OUT       74.52      2.50       0.0        0.0        0.0
J_0435_IN        9.13       2.50       0.0        0.0        0.0
J_0435_OUT       7.36       2.50       0.0        0.0        0.0
J_0436_IN        9.78       2.50       0.0        0.0        0.0
J_0436_OUT       9.13       2.50       0.0        0.0        0.0
J_0437_IN        17.93      2.50       0.0        0.0        0.0
J_0437_OUT       17.88      2.50       0.0        0.0        0.0
J_0438_IN        18.72      2.50       0.0        0.0        0.0
J_0438_OUT       17.93      2.50       0.0        0.0        0.0
J_0439_IN        16.68      2.50       0.0        0.0        0.0
J_0439_OUT       16.48      2.50       0.0        0.0        0.0
J_0440_IN        20.34      2.50       0.0        0.0        0.0
J_0440_OUT       16.68      2.50       0.0        0.0        0.0
J_0441_IN        20.55      2.50       0.0        0.0        0.0
J_0441_OUT       20.34      2.50       0.0        0.0        0.0
J_0442_IN        22.37      2.50       0.0        0.0        0.0
J_0442_OUT       20.55      2.50       0.0        0.0        0.0
J_0443_IN        10.81      2.50       0.0        0.0        0.0
J_0443_OUT       2.00       2.50       0.0        0.0        0.0
J_0444_IN        12.55      2.50       0.0        0.0        0.0
J_0444_OUT       10.81      2.50       0.0        0.0        0.0
J_0445_IN        31.59      2.50       0.0        0.0        0.0
J_0445_OUT       29.39      2.50       0.0        0.0        0.0
J_0446_IN        32.55      2.50       0.0        0.0        0.0
J_0446_OUT       31.59      2.50       0.0        0.0        0.0
J_0447_IN        6.10       2.50       0.0        0.0        0.0
J_0447_OUT       2.00       2.50       0.0        0.0        0.0
J_0448_IN        23.34      2.50       0.0        0.0        0.0
J_0448_OUT       23.14      2.50       0.0        0.0        0.0
J_0449_IN        29.39      2.50       0.0        0.0        0.0
J_0449_OUT       23.34      2.50       0.0        0.0        0.0
J_0450_IN        15.52      2.50       0.0        0.0        0.0
J_0450_OUT       15.32      2.50       0.0        0.0        0.0
J_0451_IN        13.38      2.50       0.0        0.0        0.0
J_0451_OUT       13.18      2.50       0.0        0.0        0.0
J_0452_IN        5.22       2.50       0.0        0.0        0.0
J_0452_OUT       4.59       2.50       0.0        0.0        0.0
J_0453_IN        5.22       2.50       0.0        0.0        0.0
J_0453_OUT       5.02       2.50       0.0        0.0        0.0
J_0454_IN        8.27       2.50       0.0        0.0        0.0
J_0454_OUT       8.07       2.50       0.0        0.0        0.0
J_0455_IN        8.28       2.50       0.0        0.0        0.0
J_0455_OUT       8.27       2.50       0.0        0.0        0.0
J_0456_IN        6.83       2.50       0.0        0.0        0.0
J_0456_OUT       6.74       2.50       0.0        0.0        0.0
J_0457_IN        5.16       2.50       0.0        0.0        0.0
J_0457_OUT       4.96       2.50       0.0        0.0        0.0
J_0458_IN        5.15       2.50       0.0        0.0        0.0
J_0458_OUT       4.08       2.50       0.0        0.0        0.0
J_0459_IN        6.74       2.50       0.0        0.0        0.0
J_0459_OUT       5.15       2.50       0.0        0.0        0.0
J_0460_IN        13.38      2.50       0.0        0.0        0.0
J_0460_OUT       13.18      2.50       0.0        0.0        0.0
J_0461_IN        12.29      2.50       0.0        0.0        0.0
J_0461_OUT       12.09      2.50       0.0        0.0        0.0
J_0462_IN        7.64       2.50       0.0        0.0        0.0
J_0462_OUT       7.44       2.50       0.0        0.0        0.0
J_0463_IN        12.41      2.50       0.0        0.0        0.0
J_0463_OUT       7.64       2.50       0.0        0.0        0.0
J_0464_IN        14.70      2.50       0.0        0.0        0.0
J_0464_OUT       7.69       2.50       0.0        0.0        0.0
J_0465_IN        6.14       2.50       0.0        0.0        0.0
J_0465_OUT       5.94       2.50       0.0        0.0        0.0
J_0466_IN        8.92       2.50       0.0        0.0        0.0
J_0466_OUT       8.72       2.50       0.0        0.0        0.0
J_0467_IN        9.72       2.50       0.0        0.0        0.0
J_0467_OUT       7.10       2.50       0.0        0.0        0.0
J_0468_IN        7.98       2.50       0.0        0.0        0.0
J_0468_OUT       7.78       2.50       0.0        0.0        0.0
J_0469_IN        9.30       2.50       0.0        0.0        0.0
J_0469_OUT       7.98       2.50       0.0        0.0        0.0
J_0470_IN        11.64      2.50       0.0        0.0        0.0
J_0470_OUT       9.30       2.50       0.0        0.0        0.0
J_0471_IN        11.64      2.50       0.0        0.0        0.0
J_0471_OUT       11.44      2.50       0.0        0.0        0.0
J_0472_IN        7.95       2.50       0.0        0.0        0.0
J_0472_OUT       7.75       2.50       0.0        0.0        0.0
J_0473_IN        7.10       2.50       0.0        0.0        0.0
J_0473_OUT       6.90       2.50       0.0        0.0        0.0
J_0474_IN        7.95       2.50       0.0        0.0        0.0
J_0474_OUT       7.75       2.50       0.0        0.0        0.0
J_0475_IN        7.24       2.50       0.0        0.0        0.0
J_0475_OUT       7.04       2.50       0.0        0.0        0.0
J_0476_IN        7.36       2.50       0.0        0.0        0.0
J_0476_OUT       3.59       2.50       0.0        0.0        0.0
J_0477_IN        12.20      2.50       0.0        0.0        0.0
J_0477_OUT       6.02       2.50       0.0        0.0        0.0
J_0478_IN        6.02       2.50       0.0        0.0        0.0
J_0478_OUT       5.82       2.50       0.0        0.0        0.0
J_0479_IN        12.18      2.50       0.0        0.0        0.0
J_0479_OUT       11.98      2.50       0.0        0.0        0.0
J_0480_IN        16.78      2.50       0.0        0.0        0.0
J_0480_OUT       16.58      2.50       0.0        0.0        0.0
J_0481_IN        38.68      2.50       0.0        0.0        0.0
J_0481_OUT       38.01      2.50       0.0        0.0        0.0
J_0482_IN        38.01      2.50       0.0        0.0        0.0
J_0482_OUT       32.55      2.50       0.0        0.0        0.0
J_0483_IN        18.93      2.50       0.0        0.0        0.0
J_0483_OUT       18.73      2.50       0.0        0.0        0.0
J_0484_IN        19.32      2.50       0.0        0.0        0.0
J_0484_OUT       18.93      2.50       0.0        0.0        0.0
J_0485_IN        8.37       2.50       0.0        0.0        0.0
J_0485_OUT       8.17       2.50       0.0        0.0        0.0
J_0486_IN        6.69       2.50       0.0        0.0        0.0
J_0486_OUT       6.49       2.50       0.0        0.0        0.0
J_0487_IN        7.32       2.50       0.0        0.0        0.0
J_0487_OUT       2.67       2.50       0.0        0.0        0.0
J_0488_IN        13.99      2.50       0.0        0.0        0.0
J_0488_OUT       13.79      2.50       0.0        0.0        0.0
J_0489_IN        14.73      2.50       0.0        0.0        0.0
J_0489_OUT       10.96      2.50       0.0        0.0        0.0
J_0490_IN        22.97      2.50       0.0        0.0        0.0
J_0490_OUT       21.60      2.50       0.0        0.0        0.0
J_0491_IN        6.36       2.50       0.0        0.0        0.0
J_0491_OUT       6.16       2.50       0.0        0.0        0.0
J_0492_IN        3.36       2.50       0.0        0.0        0.0
J_0492_OUT       3.16       2.50       0.0        0.0        0.0
J_0493_IN        6.70       2.50       0.0        0.0        0.0
J_0493_OUT       6.59       2.50       0.0        0.0        0.0
J_0494_IN        6.59       2.50       0.0        0.0        0.0
J_0494_OUT       6.39       2.50       0.0        0.0        0.0
J_0495_IN        6.49       2.50       0.0        0.0        0.0
J_0495_OUT       6.29       2.50       0.0        0.0        0.0
J_0496_IN        6.11       2.50       0.0        0.0        0.0
J_0496_OUT       5.91       2.50       0.0        0.0        0.0
J_0497_IN        34.35      2.50       0.0        0.0        0.0
J_0497_OUT       32.55      2.50       0.0        0.0        0.0
J_0498_IN        32.55      2.50       0.0        0.0        0.0
J_0498_OUT       32.03      2.50       0.0        0.0        0.0
J_0499_IN        1.30       2.50       0.0        0.0        0.0
J_0499_OUT       1.10       2.50       0.0        0.0        0.0
J_0500_IN        8.09       2.50       0.0        0.0        0.0
J_0500_OUT       1.30       2.50       0.0        0.0        0.0
J_0501_IN        9.30       2.50       0.0        0.0        0.0
J_0501_OUT       8.01       2.50       0.0        0.0        0.0
J_0502_IN        8.01       2.50       0.0        0.0        0.0
J_0502_OUT       5.83       2.50       0.0        0.0        0.0
J_0503_IN        11.61      2.50       0.0        0.0        0.0
J_0503_OUT       11.41      2.50       0.0        0.0        0.0
J_0504_IN        5.50       2.50       0.0        0.0        0.0
J_0504_OUT       5.46       2.50       0.0        0.0        0.0
J_0505_IN        4.52       2.50       0.0        0.0        0.0
J_0505_OUT       4.32       2.50       0.0        0.0        0.0
J_0506_IN        3.88       2.50       0.0        0.0        0.0
J_0506_OUT       3.38       2.50       0.0        0.0        0.0
J_0507_IN        4.51       2.50       0.0        0.0        0.0
J_0507_OUT       3.88       2.50       0.0        0.0        0.0
J_0508_IN        4.51       2.50       0.0        0.0        0.0
J_0508_OUT       4.31       2.50       0.0        0.0        0.0
J_0509_IN        3.38       2.50       0.0        0.0        0.0
J_0509_OUT       1.63       2.50       0.0        0.0        0.0
J_0510_IN        28.07      2.50       0.0        0.0        0.0
J_0510_OUT       27.87      2.50       0.0        0.0        0.0
J_0511_IN        29.10      2.50       0.0        0.0        0.0
J_0511_OUT       28.90      2.50       0.0        0.0        0.0
J_0512_IN        17.73      2.50       0.0        0.0        0.0
J_0512_OUT       14.22      2.50       0.0        0.0        0.0
J_0513_IN        17.73      2.50       0.0        0.0        0.0
J_0513_OUT       17.53      2.50       0.0        0.0        0.0
J_0514_IN        14.77      2.50       0.0        0.0        0.0
J_0514_OUT       14.57      2.50       0.0        0.0        0.0
J_0515_IN        14.22      2.50       0.0        0.0        0.0
J_0515_OUT       14.02      2.50       0.0        0.0        0.0
J_0516_IN        15.41      2.50       0.0        0.0        0.0
J_0516_OUT       15.21      2.50       0.0        0.0        0.0
J_0517_IN        15.41      2.50       0.0        0.0        0.0
J_0517_OUT       15.21      2.50       0.0        0.0        0.0
J_0518_IN        12.47      2.50       0.0        0.0        0.0
J_0518_OUT       12.27      2.50       0.0        0.0        0.0
J_0519_IN        15.41      2.50       0.0        0.0        0.0
J_0519_OUT       12.47      2.50       0.0        0.0        0.0
J_0520_IN        107.69     2.50       0.0        0.0        0.0
J_0520_OUT       100.38     2.50       0.0        0.0        0.0
J_0521_IN        216.69     2.50       0.0        0.0        0.0
J_0521_OUT       112.45     2.50       0.0        0.0        0.0
J_0522_IN        0.47       2.50       0.0        0.0        0.0
J_0522_OUT       0.50       2.50       0.0        0.0        0.0
J_0523_IN        12.74      2.50       0.0        0.0        0.0
J_0523_OUT       7.70       2.50       0.0        0.0        0.0
J_0524_IN        0.00       2.50       0.0        0.0        0.0
J_0524_OUT       0.50       2.50       0.0        0.0        0.0
J_0525_IN        1.81       2.50       0.0        0.0        0.0
J_0525_OUT       0.00       2.50       0.0        0.0        0.0
J_0526_IN        8.26       2.50       0.0        0.0        0.0
J_0526_OUT       1.81       2.50       0.0        0.0        0.0
J_0527_IN        5.44       2.50       0.0        0.0        0.0
J_0527_OUT       0.00       2.50       0.0        0.0        0.0
J_0528_IN        63.85      2.50       0.0        0.0        0.0
J_0528_OUT       35.46      2.50       0.0        0.0        0.0
J_0529_IN        4.63       2.50       0.0        0.0        0.0
J_0529_OUT       2.00       2.50       0.0        0.0        0.0
J_0530_IN        3.78       2.50       0.0        0.0        0.0
J_0530_OUT       2.85       2.50       0.0        0.0        0.0
J_0531_IN        2.15       2.50       0.0        0.0        0.0
J_0531_OUT       2.00       2.50       0.0        0.0        0.0
J_0532_IN        2.54       2.50       0.0        0.0        0.0
J_0532_OUT       2.00       2.50       0.0        0.0        0.0
J_0533_IN        54.47      2.50       0.0        0.0        0.0
J_0533_OUT       45.23      2.50       0.0        0.0        0.0
J_0534_IN        45.23      2.50       0.0        0.0        0.0
J_0534_OUT       45.03      2.50       0.0        0.0        0.0
J_0535_IN        45.23      2.50       0.0        0.0        0.0
J_0535_OUT       35.84      2.50       0.0        0.0        0.0
J_0536_IN        35.84      2.50       0.0        0.0        0.0
J_0536_OUT       35.64      2.50       0.0        0.0        0.0
J_0537_IN        36.19      2.50       0.0        0.0        0.0
J_0537_OUT       25.11      2.50       0.0        0.0        0.0
J_0538_IN        25.11      2.50       0.0        0.0        0.0
J_0538_OUT       24.91      2.50       0.0        0.0        0.0
J_0539_IN        27.47      2.50       0.0        0.0        0.0
J_0539_OUT       27.27      2.50       0.0        0.0        0.0
J_0540_IN        25.11      2.50       0.0        0.0        0.0
J_0540_OUT       24.91      2.50       0.0        0.0        0.0
J_0541_IN        27.47      2.50       0.0        0.0        0.0
J_0541_OUT       25.90      2.50       0.0        0.0        0.0
J_0542_IN        25.90      2.50       0.0        0.0        0.0
J_0542_OUT       25.70      2.50       0.0        0.0        0.0
J_0543_IN        25.90      2.50       0.0        0.0        0.0
J_0543_OUT       22.35      2.50       0.0        0.0        0.0
J_0544_IN        22.35      2.50       0.0        0.0        0.0
J_0544_OUT       22.15      2.50       0.0        0.0        0.0
J_0545_IN        22.35      2.50       0.0        0.0        0.0
J_0545_OUT       21.95      2.50       0.0        0.0        0.0
J_0546_IN        21.95      2.50       0.0        0.0        0.0
J_0546_OUT       21.62      2.50       0.0        0.0        0.0
J_0547_IN        21.62      2.50       0.0        0.0        0.0
J_0547_OUT       14.82      2.50       0.0        0.0        0.0
J_0548_IN        14.82      2.50       0.0        0.0        0.0
J_0548_OUT       14.62      2.50       0.0        0.0        0.0
J_0549_IN        27.90      2.50       0.0        0.0        0.0
J_0549_OUT       27.11      2.50       0.0        0.0        0.0
J_0550_IN        13.20      2.50       0.0        0.0        0.0
J_0550_OUT       6.86       2.50       0.0        0.0        0.0
J_0551_IN        39.52      2.50       0.0        0.0        0.0
J_0551_OUT       36.48      2.50       0.0        0.0        0.0
J_0552_IN        25.27      2.50       0.0        0.0        0.0
J_0552_OUT       10.47      2.50       0.0        0.0        0.0
J_0553_IN        22.52      2.50       0.0        0.0        0.0
J_0553_OUT       15.53      2.50       0.0        0.0        0.0
J_0554_IN        2.86       2.50       0.0        0.0        0.0
J_0554_OUT       2.66       2.50       0.0        0.0        0.0
J_0555_IN        11.15      2.50       0.0        0.0        0.0
J_0555_OUT       5.84       2.50       0.0        0.0        0.0
J_0556_IN        7.78       2.50       0.0        0.0        0.0
J_0556_OUT       6.40       2.50       0.0        0.0        0.0
J_0557_IN        13.54      2.50       0.0        0.0        0.0
J_0557_OUT       9.43       2.50       0.0        0.0        0.0
J_0558_IN        6.40       2.50       0.0        0.0        0.0
J_0558_OUT       3.49       2.50       0.0        0.0        0.0
J_0559_IN        114.19     2.50       0.0        0.0        0.0
J_0559_OUT       70.57      2.50       0.0        0.0        0.0
J_0560_IN        15.82      2.50       0.0        0.0        0.0
J_0560_OUT       11.24      2.50       0.0        0.0        0.0
J_0561_IN        14.05      2.50       0.0        0.0        0.0
J_0561_OUT       13.85      2.50       0.0        0.0        0.0
J_0562_IN        13.65      2.50       0.0        0.0        0.0
J_0562_OUT       13.45      2.50       0.0        0.0        0.0
J_0563_IN        1.35       2.50       0.0        0.0        0.0
J_0563_OUT       0.00       2.50       0.0        0.0        0.0
J_0564_IN        5.28       2.50       0.0        0.0        0.0
J_0564_OUT       5.08       2.50       0.0        0.0        0.0
J_0565_IN        5.31       2.50       0.0        0.0        0.0
J_0565_OUT       5.28       2.50       0.0        0.0        0.0
J_0566_IN        4.82       2.50       0.0        0.0        0.0
J_0566_OUT       4.10       2.50       0.0        0.0        0.0
J_0567_IN        6.12       2.50       0.0        0.0        0.0
J_0567_OUT       4.82       2.50       0.0        0.0        0.0
J_0568_IN        19.64      2.50       0.0        0.0        0.0
J_0568_OUT       10.84      2.50       0.0        0.0        0.0
J_0569_IN        7.74       2.50       0.0        0.0        0.0
J_0569_OUT       6.43       2.50       0.0        0.0        0.0
J_0570_IN        6.14       2.50       0.0        0.0        0.0
J_0570_OUT       5.20       2.50       0.0        0.0        0.0
J_0571_IN        6.14       2.50       0.0        0.0        0.0
J_0571_OUT       2.00       2.50       0.0        0.0        0.0
J_0572_IN        4.73       2.50       0.0        0.0        0.0
J_0572_OUT       4.05       2.50       0.0        0.0        0.0
J_0573_IN        2.31       2.50       0.0        0.0        0.0
J_0573_OUT       2.11       2.50       0.0        0.0        0.0
J_0574_IN        2.33       2.50       0.0        0.0        0.0
J_0574_OUT       1.86       2.50       0.0        0.0        0.0
J_0575_IN        3.56       2.50       0.0        0.0        0.0
J_0575_OUT       2.81       2.50       0.0        0.0        0.0
J_0576_IN        3.51       2.50       0.0        0.0        0.0
J_0576_OUT       2.64       2.50       0.0        0.0        0.0
J_0577_IN        2.12       2.50       0.0        0.0        0.0
J_0577_OUT       1.92       2.50       0.0        0.0        0.0
J_0578_IN        1.86       2.50       0.0        0.0        0.0
J_0578_OUT       1.81       2.50       0.0        0.0        0.0
J_0579_IN        1.49       2.50       0.0        0.0        0.0
J_0579_OUT       1.29       2.50       0.0        0.0        0.0
J_0580_IN        1.35       2.50       0.0        0.0        0.0
J_0580_OUT       1.15       2.50       0.0        0.0        0.0
J_0581_IN        16.38      2.50       0.0        0.0        0.0
J_0581_OUT       16.18      2.50       0.0        0.0        0.0
J_0582_IN        25.70      2.50       0.0        0.0        0.0
J_0582_OUT       12.89      2.50       0.0        0.0        0.0
J_0583_IN        36.64      2.50       0.0        0.0        0.0
J_0583_OUT       36.44      2.50       0.0        0.0        0.0
J_0584_IN        40.38      2.50       0.0        0.0        0.0
J_0584_OUT       36.64      2.50       0.0        0.0        0.0
J_0585_IN        38.40      2.50       0.0        0.0        0.0
J_0585_OUT       32.99      2.50       0.0        0.0        0.0
J_0586_IN        42.60      2.50       0.0        0.0        0.0
J_0586_OUT       37.61      2.50       0.0        0.0        0.0
J_0587_IN        40.33      2.50       0.0        0.0        0.0
J_0587_OUT       40.13      2.50       0.0        0.0        0.0
J_0588_IN        17.21      2.50       0.0        0.0        0.0
J_0588_OUT       17.01      2.50       0.0        0.0        0.0
J_0589_OUT       0.50       2.50       0.0        0.0        0.0
J_0590_IN        27.11      2.50       0.0        0.0        0.0
J_0590_OUT       24.99      2.50       0.0        0.0        0.0
J_0591_IN        26.02      2.50       0.0        0.0        0.0
J_0591_OUT       25.45      2.50       0.0        0.0        0.0
J_0592_IN        20.19      2.50       0.0        0.0        0.0
J_0593_IN        16.03      2.50       0.0        0.0        0.0
J_0593_OUT       9.95       2.50       0.0        0.0        0.0
J_0594_IN        10.86      2.50       0.0        0.0        0.0
J_0594_OUT       2.00       2.50       0.0        0.0        0.0
J_0595_IN        16.74      2.50       0.0        0.0        0.0
J_0595_OUT       16.54      2.50       0.0        0.0        0.0
J_0596_IN        20.19      2.50       0.0        0.0        0.0
J_0596_OUT       18.20      2.50       0.0        0.0        0.0
J_0597_IN        18.20      2.50       0.0        0.0        0.0
J_0597_OUT       18.00      2.50       0.0        0.0        0.0
J_0598_IN        24.40      2.50       0.0        0.0        0.0
J_0598_OUT       19.04      2.50       0.0        0.0        0.0
J_0599_IN        20.59      2.50       0.0        0.0        0.0
J_0599_OUT       20.39      2.50       0.0        0.0        0.0
J_0600_IN        26.97      2.50       0.0        0.0        0.0
J_0600_OUT       26.77      2.50       0.0        0.0        0.0
J_0601_IN        5.05       2.50       0.0        0.0        0.0
J_0601_OUT       4.85       2.50       0.0        0.0        0.0
J_0602_IN        11.97      2.50       0.0        0.0        0.0
J_0602_OUT       5.05       2.50       0.0        0.0        0.0
J_0603_IN        18.04      2.50       0.0        0.0        0.0
J_0603_OUT       17.84      2.50       0.0        0.0        0.0
J_0604_IN        32.54      2.50       0.0        0.0        0.0
J_0604_OUT       27.23      2.50       0.0        0.0        0.0
J_0605_IN        34.18      2.50       0.0        0.0        0.0
J_0605_OUT       29.87      2.50       0.0        0.0        0.0
J_0606_IN        57.57      2.50       0.0        0.0        0.0
J_0606_OUT       39.50      2.50       0.0        0.0        0.0
J_0607_IN        27.23      2.50       0.0        0.0        0.0
J_0607_OUT       25.66      2.50       0.0        0.0        0.0
J_0608_IN        37.38      2.50       0.0        0.0        0.0
J_0608_OUT       30.83      2.50       0.0        0.0        0.0
J_0609_IN        40.24      2.50       0.0        0.0        0.0
J_0609_OUT       37.38      2.50       0.0        0.0        0.0
J_0610_IN        15.34      2.50       0.0        0.0        0.0
J_0610_OUT       15.14      2.50       0.0        0.0        0.0
J_0611_IN        12.61      2.50       0.0        0.0        0.0
J_0611_OUT       12.41      2.50       0.0        0.0        0.0
J_0612_IN        15.58      2.50       0.0        0.0        0.0
J_0612_OUT       13.86      2.50       0.0        0.0        0.0
J_0613_IN        13.86      2.50       0.0        0.0        0.0
J_0613_OUT       13.66      2.50       0.0        0.0        0.0
J_0614_IN        14.54      2.50       0.0        0.0        0.0
J_0614_OUT       14.34      2.50       0.0        0.0        0.0
J_0615_IN        14.54      2.50       0.0        0.0        0.0
J_0615_OUT       11.12      2.50       0.0        0.0        0.0
J_0616_IN        11.12      2.50       0.0        0.0        0.0
J_0616_OUT       10.92      2.50       0.0        0.0        0.0
J_0617_IN        10.50      2.50       0.0        0.0        0.0
J_0617_OUT       10.30      2.50       0.0        0.0        0.0
J_0618_IN        12.00      2.50       0.0        0.0        0.0
J_0618_OUT       10.50      2.50       0.0        0.0        0.0
J_0619_IN        9.71       2.50       0.0        0.0        0.0
J_0619_OUT       7.69       2.50       0.0        0.0        0.0
J_0620_IN        37.01      2.50       0.0        0.0        0.0
J_0620_OUT       27.44      2.50       0.0        0.0        0.0
J_0621_IN        6.52       2.50       0.0        0.0        0.0
J_0621_OUT       4.79       2.50       0.0        0.0        0.0
J_0622_IN        3.94       2.50       0.0        0.0        0.0
J_0622_OUT       2.36       2.50       0.0        0.0        0.0
J_0623_IN        10.42      2.50       0.0        0.0        0.0
J_0623_OUT       10.22      2.50       0.0        0.0        0.0
J_0624_IN        10.42      2.50       0.0        0.0        0.0
J_0624_OUT       10.22      2.50       0.0        0.0        0.0
J_0625_IN        13.98      2.50       0.0        0.0        0.0
J_0625_OUT       13.78      2.50       0.0        0.0        0.0
J_0626_IN        12.34      2.50       0.0        0.0        0.0
J_0626_OUT       10.42      2.50       0.0        0.0        0.0
J_0627_IN        11.34      2.50       0.0        0.0        0.0
J_0627_OUT       11.14      2.50       0.0        0.0        0.0
J_0628_IN        15.57      2.50       0.0        0.0        0.0
J_0628_OUT       11.34      2.50       0.0        0.0        0.0
J_0629_IN        13.56      2.50       0.0        0.0        0.0
J_0629_OUT       6.75       2.50       0.0        0.0        0.0
J_0630_IN        14.76      2.50       0.0        0.0        0.0
J_0630_OUT       11.09      2.50       0.0        0.0        0.0
J_0631_IN        14.76      2.50       0.0        0.0        0.0
J_0631_OUT       14.56      2.50       0.0        0.0        0.0
J_0632_IN        10.68      2.50       0.0        0.0        0.0
J_0632_OUT       6.07       2.50       0.0        0.0        0.0
J_0633_IN        5.17       2.50       0.0        0.0        0.0
J_0633_OUT       0.03       2.50       0.0        0.0        0.0
J_0634_IN        5.17       2.50       0.0        0.0        0.0
J_0634_OUT       4.97       2.50       0.0        0.0        0.0
J_0635_IN        9.65       2.50       0.0        0.0        0.0
J_0635_OUT       9.45       2.50       0.0        0.0        0.0
J_0636_IN        15.61      2.50       0.0        0.0        0.0
J_0636_OUT       9.65       2.50       0.0        0.0        0.0
J_0637_IN        24.09      2.50       0.0        0.0        0.0
J_0637_OUT       23.89      2.50       0.0        0.0        0.0
J_0638_IN        25.70      2.50       0.0        0.0        0.0
J_0638_OUT       25.50      2.50       0.0        0.0        0.0
J_0639_IN        22.98      2.50       0.0        0.0        0.0
J_0639_OUT       22.78      2.50       0.0        0.0        0.0
J_0640_IN        24.09      2.50       0.0        0.0        0.0
J_0640_OUT       23.89      2.50       0.0        0.0        0.0
J_0641_IN        3.10       2.50       0.0        0.0        0.0
J_0641_OUT       2.12       2.50       0.0        0.0        0.0
J_0642_IN        2.12       2.50       0.0        0.0        0.0
J_0642_OUT       1.92       2.50       0.0        0.0        0.0
J_0643_IN        2.32       2.50       0.0        0.0        0.0
J_0643_OUT       2.12       2.50       0.0        0.0        0.0
J_0644_IN        2.32       2.50       0.0        0.0        0.0
J_0644_OUT       2.12       2.50       0.0        0.0        0.0
J_0645_IN        2.81       2.50       0.0        0.0        0.0
J_0645_OUT       2.16       2.50       0.0        0.0        0.0
J_0646_IN        2.81       2.50       0.0        0.0        0.0
J_0646_OUT       2.61       2.50       0.0        0.0        0.0
J_0647_IN        13.01      2.50       0.0        0.0        0.0
J_0647_OUT       11.46      2.50       0.0        0.0        0.0
J_0648_IN        11.46      2.50       0.0        0.0        0.0
J_0648_OUT       11.26      2.50       0.0        0.0        0.0
J_0649_IN        11.68      2.50       0.0        0.0        0.0
J_0649_OUT       11.48      2.50       0.0        0.0        0.0
J_0650_IN        11.68      2.50       0.0        0.0        0.0
J_0650_OUT       11.48      2.50       0.0        0.0        0.0
J_0651_IN        11.46      2.50       0.0        0.0        0.0
J_0651_OUT       11.26      2.50       0.0        0.0        0.0
J_0652_IN        16.25      2.50       0.0        0.0        0.0
J_0652_OUT       12.34      2.50       0.0        0.0        0.0
J_0653_IN        15.46      2.50       0.0        0.0        0.0
J_0653_OUT       15.26      2.50       0.0        0.0        0.0
J_0654_IN        18.08      2.50       0.0        0.0        0.0
J_0654_OUT       15.46      2.50       0.0        0.0        0.0
J_0655_IN        66.66      2.50       0.0        0.0        0.0
J_0655_OUT       40.49      2.50       0.0        0.0        0.0
J_0656_IN        40.49      2.50       0.0        0.0        0.0
J_0656_OUT       10.55      2.50       0.0        0.0        0.0
J_0657_IN        2.94       2.50       0.0        0.0        0.0
J_0657_OUT       2.66       2.50       0.0        0.0        0.0
J_0658_IN        0.80       2.50       0.0        0.0        0.0
J_0658_OUT       0.60       2.50       0.0        0.0        0.0
J_0659_IN        27.07      2.50       0.0        0.0        0.0
J_0659_OUT       26.87      2.50       0.0        0.0        0.0
J_0660_IN        15.26      2.50       0.0        0.0        0.0
J_0660_OUT       15.06      2.50       0.0        0.0        0.0
J_0661_IN        25.66      2.50       0.0        0.0        0.0
J_0661_OUT       20.71      2.50       0.0        0.0        0.0
J_0662_IN        39.17      2.50       0.0        0.0        0.0
J_0662_OUT       37.14      2.50       0.0        0.0        0.0
J_0663_IN        7.13       2.50       0.0        0.0        0.0
J_0663_OUT       6.93       2.50       0.0        0.0        0.0
J_0664_IN        60.68      2.50       0.0        0.0        0.0
J_0664_OUT       56.93      2.50       0.0        0.0        0.0
J_0665_IN        75.81      2.50       0.0        0.0        0.0
J_0665_OUT       43.85      2.50       0.0        0.0        0.0
J_0666_IN        62.24      2.50       0.0        0.0        0.0
J_0666_OUT       55.83      2.50       0.0        0.0        0.0
J_0667_IN        27.23      2.50       0.0        0.0        0.0
J_0667_OUT       24.30      2.50       0.0        0.0        0.0
J_0668_IN        75.94      2.50       0.0        0.0        0.0
J_0668_OUT       71.40      2.50       0.0        0.0        0.0
J_0669_IN        5.49       2.50       0.0        0.0        0.0
J_0669_OUT       5.34       2.50       0.0        0.0        0.0
J_0670_IN        8.37       2.50       0.0        0.0        0.0
J_0670_OUT       5.49       2.50       0.0        0.0        0.0
J_0671_IN        7.70       2.50       0.0        0.0        0.0
J_0671_OUT       7.50       2.50       0.0        0.0        0.0
J_0672_IN        9.68       2.50       0.0        0.0        0.0
J_0672_OUT       1.81       2.50       0.0        0.0        0.0
J_0673_IN        13.06      2.50       0.0        0.0        0.0
J_0673_OUT       9.09       2.50       0.0        0.0        0.0
J_0674_IN        4.10       2.50       0.0        0.0        0.0
J_0674_OUT       3.90       2.50       0.0        0.0        0.0
J_0675_IN        11.04      2.50       0.0        0.0        0.0
J_0675_OUT       5.09       2.50       0.0        0.0        0.0
J_0676_IN        6.93       2.50       0.0        0.0        0.0
J_0676_OUT       5.31       2.50       0.0        0.0        0.0
J_0677_IN        11.46      2.50       0.0        0.0        0.0
J_0677_OUT       6.93       2.50       0.0        0.0        0.0
J_0678_IN        4.08       2.50       0.0        0.0        0.0
J_0678_OUT       3.88       2.50       0.0        0.0        0.0
J_0679_IN        55.17      2.50       0.0        0.0        0.0
J_0679_OUT       46.84      2.50       0.0        0.0        0.0
J_0680_IN        29.45      2.50       0.0        0.0        0.0
J_0680_OUT       29.25      2.50       0.0        0.0        0.0
J_0681_IN        29.45      2.50       0.0        0.0        0.0
J_0681_OUT       29.25      2.50       0.0        0.0        0.0
J_0682_IN        37.08      2.50       0.0        0.0        0.0
J_0682_OUT       29.45      2.50       0.0        0.0        0.0
J_0683_IN        37.88      2.50       0.0        0.0        0.0
J_0683_OUT       37.08      2.50       0.0        0.0        0.0
J_0684_IN        38.96      2.50       0.0        0.0        0.0
J_0684_OUT       37.88      2.50       0.0        0.0        0.0
J_0685_IN        38.96      2.50       0.0        0.0        0.0
J_0685_OUT       38.76      2.50       0.0        0.0        0.0
J_0686_IN        37.12      2.50       0.0        0.0        0.0
J_0686_OUT       36.92      2.50       0.0        0.0        0.0
J_0687_IN        37.12      2.50       0.0        0.0        0.0
J_0687_OUT       36.92      2.50       0.0        0.0        0.0
J_0688_IN        42.17      2.50       0.0        0.0        0.0
J_0688_OUT       37.12      2.50       0.0        0.0        0.0
J_0689_IN        46.84      2.50       0.0        0.0        0.0
J_0689_OUT       42.17      2.50       0.0        0.0        0.0
J_0690_IN        29.45      2.50       0.0        0.0        0.0
J_0690_OUT       25.27      2.50       0.0        0.0        0.0
J_0691_IN        25.27      2.50       0.0        0.0        0.0
J_0691_OUT       25.07      2.50       0.0        0.0        0.0
J_0692_IN        33.50      2.50       0.0        0.0        0.0
J_0692_OUT       28.64      2.50       0.0        0.0        0.0
J_0693_IN        23.88      2.50       0.0        0.0        0.0
J_0693_OUT       22.77      2.50       0.0        0.0        0.0
J_0694_IN        26.50      2.50       0.0        0.0        0.0
J_0694_OUT       26.30      2.50       0.0        0.0        0.0
J_0695_IN        28.64      2.50       0.0        0.0        0.0
J_0695_OUT       26.50      2.50       0.0        0.0        0.0
J_0696_IN        42.71      2.50       0.0        0.0        0.0
J_0696_OUT       34.57      2.50       0.0        0.0        0.0
J_0697_IN        41.15      2.50       0.0        0.0        0.0
J_0697_OUT       40.95      2.50       0.0        0.0        0.0
J_0698_IN        13.40      2.50       0.0        0.0        0.0
J_0698_OUT       11.36      2.50       0.0        0.0        0.0
J_0699_IN        11.36      2.50       0.0        0.0        0.0
J_0699_OUT       11.15      2.50       0.0        0.0        0.0
J_0700_IN        11.15      2.50       0.0        0.0        0.0
J_0700_OUT       9.68       2.50       0.0        0.0        0.0
J_0701_IN        9.68       2.50       0.0        0.0        0.0
J_0701_OUT       9.48       2.50       0.0        0.0        0.0
J_0702_OUT       0.50       2.50       0.0        0.0        0.0
J_0703_OUT       0.50       2.50       0.0        0.0        0.0
J_0704_IN        2.20       2.50       0.0        0.0        0.0
J_0704_OUT       2.09       2.50       0.0        0.0        0.0
J_0705_IN        28.74      2.50       0.0        0.0        0.0
J_0705_OUT       28.07      2.50       0.0        0.0        0.0
J_0706_IN        156.64     2.50       0.0        0.0        0.0
J_0706_OUT       74.30      2.50       0.0        0.0        0.0
J_0707_IN        273.17     2.50       0.0        0.0        0.0
J_0707_OUT       91.13      2.50       0.0        0.0        0.0
J_0708_IN        162.21     2.50       0.0        0.0        0.0
J_0708_OUT       78.36      2.50       0.0        0.0        0.0
J_0709_IN        123.71     2.50       0.0        0.0        0.0
J_0709_OUT       78.20      2.50       0.0        0.0        0.0
J_0710_IN        167.75     2.50       0.0        0.0        0.0
J_0710_OUT       63.62      2.50       0.0        0.0        0.0
J_0711_IN        16.03      2.50       0.0        0.0        0.0
J_0711_OUT       15.83      2.50       0.0        0.0        0.0
J_0712_IN        10.81      2.50       0.0        0.0        0.0
J_0712_OUT       7.78       2.50       0.0        0.0        0.0
J_0713_IN        9.52       2.50       0.0        0.0        0.0
J_0713_OUT       9.32       2.50       0.0        0.0        0.0
J_0714_IN        5.01       2.50       0.0        0.0        0.0
J_0714_OUT       4.81       2.50       0.0        0.0        0.0
J_0715_IN        2.08       2.50       0.0        0.0        0.0
J_0715_OUT       1.88       2.50       0.0        0.0        0.0
J_0716_IN        5.18       2.50       0.0        0.0        0.0
J_0716_OUT       4.98       2.50       0.0        0.0        0.0
J_0717_IN        3.92       2.50       0.0        0.0        0.0
J_0717_OUT       3.72       2.50       0.0        0.0        0.0
J_0718_IN        6.31       2.50       0.0        0.0        0.0
J_0718_OUT       4.56       2.50       0.0        0.0        0.0
J_0719_IN        7.49       2.50       0.0        0.0        0.0
J_0719_OUT       5.12       2.50       0.0        0.0        0.0
J_0720_IN        3.01       2.50       0.0        0.0        0.0
J_0720_OUT       2.81       2.50       0.0        0.0        0.0
J_0721_IN        7.31       2.50       0.0        0.0        0.0
J_0721_OUT       7.10       2.50       0.0        0.0        0.0
J_0722_IN        6.91       2.50       0.0        0.0        0.0
J_0722_OUT       5.07       2.50       0.0        0.0        0.0
J_0723_IN        43.85      2.50       0.0        0.0        0.0
J_0723_OUT       31.89      2.50       0.0        0.0        0.0
J_0724_IN        1.24       2.50       0.0        0.0        0.0
J_0724_OUT       1.04       2.50       0.0        0.0        0.0
J_0725_IN        2.66       2.50       0.0        0.0        0.0
J_0725_OUT       2.46       2.50       0.0        0.0        0.0
J_0726_IN        4.96       2.50       0.0        0.0        0.0
J_0726_OUT       2.70       2.50       0.0        0.0        0.0
J_0727_IN        49.96      2.50       0.0        0.0        0.0
J_0727_OUT       39.42      2.50       0.0        0.0        0.0
J_0728_IN        39.42      2.50       0.0        0.0        0.0
J_0728_OUT       32.54      2.50       0.0        0.0        0.0
J_0729_IN        60.31      2.50       0.0        0.0        0.0
J_0729_OUT       60.11      2.50       0.0        0.0        0.0
J_0730_IN        60.31      2.50       0.0        0.0        0.0
J_0730_OUT       60.11      2.50       0.0        0.0        0.0
J_0731_IN        6.93       2.50       0.0        0.0        0.0
J_0731_OUT       6.73       2.50       0.0        0.0        0.0
J_0732_IN        16.63      2.50       0.0        0.0        0.0
J_0732_OUT       6.93       2.50       0.0        0.0        0.0
J_0733_IN        39.17      2.50       0.0        0.0        0.0
J_0733_OUT       38.97      2.50       0.0        0.0        0.0
J_0734_IN        39.50      2.50       0.0        0.0        0.0
J_0734_OUT       34.75      2.50       0.0        0.0        0.0
J_0735_IN        40.39      2.50       0.0        0.0        0.0
J_0735_OUT       39.17      2.50       0.0        0.0        0.0
J_0736_IN        83.14      2.50       0.0        0.0        0.0
J_0736_OUT       64.49      2.50       0.0        0.0        0.0
J_0737_IN        63.25      2.50       0.0        0.0        0.0
J_0737_OUT       63.05      2.50       0.0        0.0        0.0
J_0738_IN        37.33      2.50       0.0        0.0        0.0
J_0738_OUT       30.90      2.50       0.0        0.0        0.0
J_0739_IN        131.48     2.50       0.0        0.0        0.0
J_0739_OUT       79.62      2.50       0.0        0.0        0.0
J_0740_IN        130.45     2.50       0.0        0.0        0.0
J_0740_OUT       93.62      2.50       0.0        0.0        0.0
J_0741_IN        162.15     2.50       0.0        0.0        0.0
J_0741_OUT       95.46      2.50       0.0        0.0        0.0
J_0742_IN        91.92      2.50       0.0        0.0        0.0
J_0742_OUT       61.16      2.50       0.0        0.0        0.0
J_0743_IN        96.48      2.50       0.0        0.0        0.0
J_0743_OUT       69.95      2.50       0.0        0.0        0.0
J_0744_IN        112.00     2.50       0.0        0.0        0.0
J_0744_OUT       83.46      2.50       0.0        0.0        0.0
J_0745_IN        115.24     2.50       0.0        0.0        0.0
J_0745_OUT       83.53      2.50       0.0        0.0        0.0
J_0746_IN        115.24     2.50       0.0        0.0        0.0
J_0746_OUT       93.51      2.50       0.0        0.0        0.0
J_0747_IN        106.36     2.50       0.0        0.0        0.0
J_0747_OUT       71.48      2.50       0.0        0.0        0.0
J_0748_IN        196.91     2.50       0.0        0.0        0.0
J_0748_OUT       154.31     2.50       0.0        0.0        0.0
J_0749_IN        204.79     2.50       0.0        0.0        0.0
J_0749_OUT       173.76     2.50       0.0        0.0        0.0
J_0750_IN        191.13     2.50       0.0        0.0        0.0
J_0750_OUT       153.95     2.50       0.0        0.0        0.0
J_0751_IN        198.46     2.50       0.0        0.0        0.0
J_0751_OUT       147.09     2.50       0.0        0.0        0.0
J_0752_IN        115.61     2.50       0.0        0.0        0.0
J_0752_OUT       94.27      2.50       0.0        0.0        0.0
J_0753_IN        109.31     2.50       0.0        0.0        0.0
J_0753_OUT       89.64      2.50       0.0        0.0        0.0
J_0754_IN        131.46     2.50       0.0        0.0        0.0
J_0754_OUT       91.15      2.50       0.0        0.0        0.0
J_0755_IN        62.82      2.50       0.0        0.0        0.0
J_0755_OUT       54.03      2.50       0.0        0.0        0.0
J_0756_IN        101.64     2.50       0.0        0.0        0.0
J_0756_OUT       58.08      2.50       0.0        0.0        0.0
J_0757_IN        82.32      2.50       0.0        0.0        0.0
J_0757_OUT       63.29      2.50       0.0        0.0        0.0
J_0758_IN        54.01      2.50       0.0        0.0        0.0
J_0758_OUT       53.81      2.50       0.0        0.0        0.0
J_0759_IN        194.57     2.50       0.0        0.0        0.0
J_0759_OUT       84.26      2.50       0.0        0.0        0.0
J_0760_IN        83.05      2.50       0.0        0.0        0.0
J_0760_OUT       62.34      2.50       0.0        0.0        0.0
J_0761_IN        76.73      2.50       0.0        0.0        0.0
J_0761_OUT       65.64      2.50       0.0        0.0        0.0
J_0762_IN        78.48      2.50       0.0        0.0        0.0
J_0762_OUT       74.78      2.50       0.0        0.0        0.0
J_0763_IN        66.91      2.50       0.0        0.0        0.0
J_0763_OUT       58.86      2.50       0.0        0.0        0.0
J_0764_IN        51.11      2.50       0.0        0.0        0.0
J_0764_OUT       42.74      2.50       0.0        0.0        0.0
J_0765_IN        67.41      2.50       0.0        0.0        0.0
J_0765_OUT       51.11      2.50       0.0        0.0        0.0
J_0766_IN        174.44     2.50       0.0        0.0        0.0
J_0766_OUT       71.65      2.50       0.0        0.0        0.0
J_0767_IN        120.38     2.50       0.0        0.0        0.0
J_0767_OUT       72.94      2.50       0.0        0.0        0.0
J_0768_IN        340.65     2.50       0.0        0.0        0.0
J_0768_OUT       52.50      2.50       0.0        0.0        0.0
J_0769_IN        217.11     2.50       0.0        0.0        0.0
J_0769_OUT       67.03      2.50       0.0        0.0        0.0
J_0770_IN        227.02     2.50       0.0        0.0        0.0
J_0770_OUT       77.13      2.50       0.0        0.0        0.0
J_0771_IN        308.26     2.50       0.0        0.0        0.0
J_0771_OUT       67.42      2.50       0.0        0.0        0.0
J_0772_IN        148.72     2.50       0.0        0.0        0.0
J_0772_OUT       92.74      2.50       0.0        0.0        0.0
J_0773_IN        242.83     2.50       0.0        0.0        0.0
J_0773_OUT       155.17     2.50       0.0        0.0        0.0
J_0774_IN        207.97     2.50       0.0        0.0        0.0
J_0774_OUT       112.43     2.50       0.0        0.0        0.0
J_0775_IN        18.24      2.50       0.0        0.0        0.0
J_0775_OUT       17.24      2.50       0.0        0.0        0.0
J_0776_IN        19.44      2.50       0.0        0.0        0.0
J_0776_OUT       19.24      2.50       0.0        0.0        0.0
J_0777_IN        15.11      2.50       0.0        0.0        0.0
J_0777_OUT       14.91      2.50       0.0        0.0        0.0
J_0778_IN        15.01      2.50       0.0        0.0        0.0
J_0778_OUT       14.81      2.50       0.0        0.0        0.0
J_0779_IN        16.45      2.50       0.0        0.0        0.0
J_0779_OUT       15.01      2.50       0.0        0.0        0.0
J_0780_IN        16.44      2.50       0.0        0.0        0.0
J_0780_OUT       16.24      2.50       0.0        0.0        0.0
J_0781_IN        15.22      2.50       0.0        0.0        0.0
J_0781_OUT       15.02      2.50       0.0        0.0        0.0
J_0782_IN        20.73      2.50       0.0        0.0        0.0
J_0782_OUT       15.22      2.50       0.0        0.0        0.0
J_0783_IN        15.34      2.50       0.0        0.0        0.0
J_0783_OUT       15.14      2.50       0.0        0.0        0.0
J_0784_IN        15.61      2.50       0.0        0.0        0.0
J_0784_OUT       15.34      2.50       0.0        0.0        0.0
J_0785_IN        17.24      2.50       0.0        0.0        0.0
J_0785_OUT       15.61      2.50       0.0        0.0        0.0
J_0786_IN        18.13      2.50       0.0        0.0        0.0
J_0786_OUT       17.93      2.50       0.0        0.0        0.0
J_0787_IN        106.32     2.50       0.0        0.0        0.0
J_0787_OUT       71.70      2.50       0.0        0.0        0.0
J_0788_IN        21.71      2.50       0.0        0.0        0.0
J_0788_OUT       18.67      2.50       0.0        0.0        0.0
J_0789_IN        22.70      2.50       0.0        0.0        0.0
J_0789_OUT       21.71      2.50       0.0        0.0        0.0
J_0790_IN        13.62      2.50       0.0        0.0        0.0
J_0790_OUT       13.42      2.50       0.0        0.0        0.0
J_0791_IN        12.92      2.50       0.0        0.0        0.0
J_0791_OUT       12.72      2.50       0.0        0.0        0.0
J_0792_IN        13.93      2.50       0.0        0.0        0.0
J_0792_OUT       12.92      2.50       0.0        0.0        0.0
J_0793_IN        13.93      2.50       0.0        0.0        0.0
J_0793_OUT       13.73      2.50       0.0        0.0        0.0
J_0794_IN        18.98      2.50       0.0        0.0        0.0
J_0794_OUT       18.24      2.50       0.0        0.0        0.0
J_0795_IN        19.26      2.50       0.0        0.0        0.0
J_0795_OUT       18.98      2.50       0.0        0.0        0.0
J_0796_IN        19.26      2.50       0.0        0.0        0.0
J_0796_OUT       19.06      2.50       0.0        0.0        0.0
J_0797_IN        19.26      2.50       0.0        0.0        0.0
J_0797_OUT       19.06      2.50       0.0        0.0        0.0
J_0798_IN        19.26      2.50       0.0        0.0        0.0
J_0798_OUT       19.06      2.50       0.0        0.0        0.0
J_0799_IN        19.05      2.50       0.0        0.0        0.0
J_0799_OUT       18.85      2.50       0.0        0.0        0.0
J_0800_IN        19.05      2.50       0.0        0.0        0.0
J_0800_OUT       18.85      2.50       0.0        0.0        0.0
J_0801_IN        19.05      2.50       0.0        0.0        0.0
J_0801_OUT       18.85      2.50       0.0        0.0        0.0
J_0802_IN        19.05      2.50       0.0        0.0        0.0
J_0802_OUT       18.85      2.50       0.0        0.0        0.0
J_0803_IN        86.74      2.50       0.0        0.0        0.0
J_0803_OUT       67.54      2.50       0.0        0.0        0.0
J_0804_IN        52.90      2.50       0.0        0.0        0.0
J_0804_OUT       47.84      2.50       0.0        0.0        0.0
J_0805_IN        6.55       2.50       0.0        0.0        0.0
J_0805_OUT       5.44       2.50       0.0        0.0        0.0
J_0806_IN        5.44       2.50       0.0        0.0        0.0
J_0806_OUT       5.24       2.50       0.0        0.0        0.0
J_0807_IN        26.25      2.50       0.0        0.0        0.0
J_0807_OUT       26.05      2.50       0.0        0.0        0.0
J_0808_IN        28.63      2.50       0.0        0.0        0.0
J_0808_OUT       27.27      2.50       0.0        0.0        0.0
J_0809_IN        7.63       2.50       0.0        0.0        0.0
J_0809_OUT       1.53       2.50       0.0        0.0        0.0
J_0810_IN        44.83      2.50       0.0        0.0        0.0
J_0810_OUT       44.63      2.50       0.0        0.0        0.0
J_0811_IN        126.49     2.50       0.0        0.0        0.0
J_0811_OUT       98.17      2.50       0.0        0.0        0.0
J_0812_IN        145.86     2.50       0.0        0.0        0.0
J_0812_OUT       131.35     2.50       0.0        0.0        0.0
J_0813_IN        100.69     2.50       0.0        0.0        0.0
J_0813_OUT       87.72      2.50       0.0        0.0        0.0
J_0814_IN        118.69     2.50       0.0        0.0        0.0
J_0814_OUT       112.64     2.50       0.0        0.0        0.0
J_0815_IN        140.27     2.50       0.0        0.0        0.0
J_0815_OUT       82.55      2.50       0.0        0.0        0.0
J_0816_IN        27.27      2.50       0.0        0.0        0.0
J_0816_OUT       25.80      2.50       0.0        0.0        0.0
J_0817_IN        25.80      2.50       0.0        0.0        0.0
J_0817_OUT       19.32      2.50       0.0        0.0        0.0
J_0818_IN        0.00       2.50       0.0        0.0        0.0
J_0818_OUT       0.50       2.50       0.0        0.0        0.0
J_0819_IN        16.96      2.50       0.0        0.0        0.0
J_0819_OUT       12.24      2.50       0.0        0.0        0.0
J_0820_IN        19.73      2.50       0.0        0.0        0.0
J_0820_OUT       16.96      2.50       0.0        0.0        0.0
J_0821_IN        12.24      2.50       0.0        0.0        0.0
J_0821_OUT       12.04      2.50       0.0        0.0        0.0
J_0822_IN        12.24      2.50       0.0        0.0        0.0
J_0822_OUT       12.04      2.50       0.0        0.0        0.0
J_0823_IN        27.01      2.50       0.0        0.0        0.0
J_0823_OUT       26.81      2.50       0.0        0.0        0.0
J_0824_IN        24.77      2.50       0.0        0.0        0.0
J_0824_OUT       24.57      2.50       0.0        0.0        0.0
J_0825_IN        24.77      2.50       0.0        0.0        0.0
J_0825_OUT       24.57      2.50       0.0        0.0        0.0
J_0826_IN        24.77      2.50       0.0        0.0        0.0
J_0826_OUT       22.97      2.50       0.0        0.0        0.0
J_0827_IN        22.97      2.50       0.0        0.0        0.0
J_0827_OUT       22.77      2.50       0.0        0.0        0.0
J_0828_IN        17.08      2.50       0.0        0.0        0.0
J_0828_OUT       12.18      2.50       0.0        0.0        0.0
J_0829_IN        17.08      2.50       0.0        0.0        0.0
J_0829_OUT       16.88      2.50       0.0        0.0        0.0
J_0830_IN        18.94      2.50       0.0        0.0        0.0
J_0830_OUT       12.59      2.50       0.0        0.0        0.0
J_0831_IN        10.53      2.50       0.0        0.0        0.0
J_0831_OUT       10.33      2.50       0.0        0.0        0.0
J_0832_IN        10.20      2.50       0.0        0.0        0.0
J_0832_OUT       10.00      2.50       0.0        0.0        0.0
J_0833_IN        19.44      2.50       0.0        0.0        0.0
J_0833_OUT       6.88       2.50       0.0        0.0        0.0
J_0834_IN        6.88       2.50       0.0        0.0        0.0
J_0834_OUT       6.68       2.50       0.0        0.0        0.0
J_0835_IN        8.18       2.50       0.0        0.0        0.0
J_0835_OUT       6.50       2.50       0.0        0.0        0.0
J_0836_IN        6.50       2.50       0.0        0.0        0.0
J_0836_OUT       6.30       2.50       0.0        0.0        0.0
J_0837_IN        8.88       2.50       0.0        0.0        0.0
J_0837_OUT       5.25       2.50       0.0        0.0        0.0
J_0838_IN        5.25       2.50       0.0        0.0        0.0
J_0838_OUT       5.05       2.50       0.0        0.0        0.0
J_0839_IN        5.65       2.50       0.0        0.0        0.0
J_0839_OUT       5.45       2.50       0.0        0.0        0.0
J_0840_IN        8.62       2.50       0.0        0.0        0.0
J_0840_OUT       8.42       2.50       0.0        0.0        0.0
J_0841_IN        7.10       2.50       0.0        0.0        0.0
J_0841_OUT       6.90       2.50       0.0        0.0        0.0
J_0842_IN        6.81       2.50       0.0        0.0        0.0
J_0842_OUT       6.61       2.50       0.0        0.0        0.0
J_0843_IN        16.03      2.50       0.0        0.0        0.0
J_0843_OUT       15.23      2.50       0.0        0.0        0.0
J_0844_IN        15.23      2.50       0.0        0.0        0.0
J_0844_OUT       15.03      2.50       0.0        0.0        0.0
J_0845_IN        15.23      2.50       0.0        0.0        0.0
J_0845_OUT       15.03      2.50       0.0        0.0        0.0
J_0846_IN        18.28      2.50       0.0        0.0        0.0
J_0846_OUT       18.08      2.50       0.0        0.0        0.0
J_0847_IN        19.77      2.50       0.0        0.0        0.0
J_0847_OUT       17.49      2.50       0.0        0.0        0.0
J_0848_IN        16.09      2.50       0.0        0.0        0.0
J_0848_OUT       13.55      2.50       0.0        0.0        0.0
J_0849_IN        16.09      2.50       0.0        0.0        0.0
J_0849_OUT       15.89      2.50       0.0        0.0        0.0
J_0850_IN        16.09      2.50       0.0        0.0        0.0
J_0850_OUT       15.89      2.50       0.0        0.0        0.0
J_0851_IN        15.25      2.50       0.0        0.0        0.0
J_0851_OUT       15.05      2.50       0.0        0.0        0.0
J_0852_IN        73.58      2.50       0.0        0.0        0.0
J_0852_OUT       39.43      2.50       0.0        0.0        0.0
J_0853_IN        38.00      2.50       0.0        0.0        0.0
J_0853_OUT       37.80      2.50       0.0        0.0        0.0
J_0854_IN        39.43      2.50       0.0        0.0        0.0
J_0854_OUT       38.00      2.50       0.0        0.0        0.0
J_0855_IN        39.43      2.50       0.0        0.0        0.0
J_0855_OUT       39.23      2.50       0.0        0.0        0.0
J_0856_IN        39.43      2.50       0.0        0.0        0.0
J_0856_OUT       39.23      2.50       0.0        0.0        0.0
J_0857_IN        39.43      2.50       0.0        0.0        0.0
J_0857_OUT       39.23      2.50       0.0        0.0        0.0
J_0858_IN        22.61      2.50       0.0        0.0        0.0
J_0858_OUT       22.41      2.50       0.0        0.0        0.0
J_0859_IN        23.30      2.50       0.0        0.0        0.0
J_0859_OUT       23.23      2.50       0.0        0.0        0.0
J_0860_IN        15.76      2.50       0.0        0.0        0.0
J_0860_OUT       11.65      2.50       0.0        0.0        0.0
J_0861_IN        11.96      2.50       0.0        0.0        0.0
J_0861_OUT       11.76      2.50       0.0        0.0        0.0
J_0862_IN        11.65      2.50       0.0        0.0        0.0
J_0862_OUT       11.45      2.50       0.0        0.0        0.0
J_0863_IN        11.65      2.50       0.0        0.0        0.0
J_0863_OUT       11.45      2.50       0.0        0.0        0.0
J_0864_IN        21.37      2.50       0.0        0.0        0.0
J_0865_OUT       0.50       2.50       0.0        0.0        0.0
J_0866_IN        3.70       2.50       0.0        0.0        0.0
J_0866_OUT       3.50       2.50       0.0        0.0        0.0
J_0867_IN        6.12       2.50       0.0        0.0        0.0
J_0867_OUT       5.31       2.50       0.0        0.0        0.0
J_0868_IN        24.75      2.50       0.0        0.0        0.0
J_0868_OUT       22.61      2.50       0.0        0.0        0.0
J_0869_IN        23.65      2.50       0.0        0.0        0.0
J_0869_OUT       23.45      2.50       0.0        0.0        0.0
J_0870_IN        23.05      2.50       0.0        0.0        0.0
J_0870_OUT       22.91      2.50       0.0        0.0        0.0
J_0871_IN        23.05      2.50       0.0        0.0        0.0
J_0871_OUT       22.85      2.50       0.0        0.0        0.0
J_0872_IN        24.14      2.50       0.0        0.0        0.0
J_0872_OUT       21.87      2.50       0.0        0.0        0.0
J_0873_IN        24.14      2.50       0.0        0.0        0.0
J_0873_OUT       23.94      2.50       0.0        0.0        0.0
J_0874_IN        19.36      2.50       0.0        0.0        0.0
J_0874_OUT       19.16      2.50       0.0        0.0        0.0
J_0875_IN        19.96      2.50       0.0        0.0        0.0
J_0875_OUT       19.36      2.50       0.0        0.0        0.0
J_0876_IN        21.87      2.50       0.0        0.0        0.0
J_0876_OUT       20.74      2.50       0.0        0.0        0.0
J_0877_IN        20.74      2.50       0.0        0.0        0.0
J_0877_OUT       19.02      2.50       0.0        0.0        0.0
J_0878_IN        28.08      2.50       0.0        0.0        0.0
J_0878_OUT       23.65      2.50       0.0        0.0        0.0
J_0879_IN        28.08      2.50       0.0        0.0        0.0
J_0879_OUT       27.88      2.50       0.0        0.0        0.0
J_0880_IN        9.52       2.50       0.0        0.0        0.0
J_0880_OUT       9.32       2.50       0.0        0.0        0.0
J_0881_IN        10.81      2.50       0.0        0.0        0.0
J_0881_OUT       10.61      2.50       0.0        0.0        0.0
J_0882_IN        9.43       2.50       0.0        0.0        0.0
J_0882_OUT       9.00       2.50       0.0        0.0        0.0
J_0883_IN        9.43       2.50       0.0        0.0        0.0
J_0883_OUT       9.23       2.50       0.0        0.0        0.0
J_0884_IN        8.04       2.50       0.0        0.0        0.0
J_0884_OUT       7.84       2.50       0.0        0.0        0.0
J_0885_IN        9.00       2.50       0.0        0.0        0.0
J_0885_OUT       8.04       2.50       0.0        0.0        0.0
J_0886_IN        9.39       2.50       0.0        0.0        0.0
J_0886_OUT       9.19       2.50       0.0        0.0        0.0
J_0887_IN        9.92       2.50       0.0        0.0        0.0
J_0887_OUT       9.39       2.50       0.0        0.0        0.0
J_0888_IN        7.26       2.50       0.0        0.0        0.0
J_0888_OUT       2.60       2.50       0.0        0.0        0.0
J_0889_IN        7.26       2.50       0.0        0.0        0.0
J_0889_OUT       7.06       2.50       0.0        0.0        0.0
J_0890_IN        20.79      2.50       0.0        0.0        0.0
J_0890_OUT       20.59      2.50       0.0        0.0        0.0
J_0891_IN        21.93      2.50       0.0        0.0        0.0
J_0891_OUT       21.73      2.50       0.0        0.0        0.0
J_0892_IN        22.67      2.50       0.0        0.0        0.0
J_0892_OUT       22.47      2.50       0.0        0.0        0.0
J_0893_IN        22.67      2.50       0.0        0.0        0.0
J_0893_OUT       22.47      2.50       0.0        0.0        0.0
J_0894_IN        6.07       2.50       0.0        0.0        0.0
J_0894_OUT       5.87       2.50       0.0        0.0        0.0
J_0895_IN        6.07       2.50       0.0        0.0        0.0
J_0895_OUT       5.87       2.50       0.0        0.0        0.0
J_0896_IN        3.83       2.50       0.0        0.0        0.0
J_0896_OUT       1.50       2.50       0.0        0.0        0.0
J_0897_IN        3.83       2.50       0.0        0.0        0.0
J_0897_OUT       3.63       2.50       0.0        0.0        0.0
J_0898_IN        9.97       2.50       0.0        0.0        0.0
J_0898_OUT       9.08       2.50       0.0        0.0        0.0
J_0899_IN        8.99       2.50       0.0        0.0        0.0
J_0899_OUT       8.79       2.50       0.0        0.0        0.0
J_0900_IN        31.25      2.50       0.0        0.0        0.0
J_0900_OUT       27.90      2.50       0.0        0.0        0.0
J_0901_IN        27.90      2.50       0.0        0.0        0.0
J_0901_OUT       27.70      2.50       0.0        0.0        0.0
J_0902_IN        8.99       2.50       0.0        0.0        0.0
J_0902_OUT       5.97       2.50       0.0        0.0        0.0
J_0903_IN        5.97       2.50       0.0        0.0        0.0
J_0903_OUT       5.77       2.50       0.0        0.0        0.0
J_0904_IN        17.49      2.50       0.0        0.0        0.0
J_0904_OUT       10.67      2.50       0.0        0.0        0.0
J_0905_IN        10.67      2.50       0.0        0.0        0.0
J_0905_OUT       10.47      2.50       0.0        0.0        0.0
J_0906_IN        12.48      2.50       0.0        0.0        0.0
J_0906_OUT       12.28      2.50       0.0        0.0        0.0
J_0907_IN        13.55      2.50       0.0        0.0        0.0
J_0907_OUT       12.48      2.50       0.0        0.0        0.0
J_0908_IN        16.62      2.50       0.0        0.0        0.0
J_0908_OUT       15.94      2.50       0.0        0.0        0.0
J_0909_IN        15.78      2.50       0.0        0.0        0.0
J_0909_OUT       15.58      2.50       0.0        0.0        0.0
J_0910_IN        15.94      2.50       0.0        0.0        0.0
J_0910_OUT       15.78      2.50       0.0        0.0        0.0
J_0911_IN        15.94      2.50       0.0        0.0        0.0
J_0911_OUT       15.74      2.50       0.0        0.0        0.0
J_0912_IN        32.74      2.50       0.0        0.0        0.0
J_0912_OUT       32.54      2.50       0.0        0.0        0.0
J_0913_IN        32.74      2.50       0.0        0.0        0.0
J_0913_OUT       32.54      2.50       0.0        0.0        0.0
J_0914_IN        8.77       2.50       0.0        0.0        0.0
J_0914_OUT       5.85       2.50       0.0        0.0        0.0
J_0915_IN        5.36       2.50       0.0        0.0        0.0
J_0915_OUT       0.37       2.50       0.0        0.0        0.0

[OUTFALLS]
;;Name           Elevation  Type  Stage/Gated
J_0295_OUT       -16.44     FREE  NO
J_0589_IN        -16.44     FREE  NO
J_0592_OUT       -16.44     FREE  NO
J_0702_IN        -16.44     FREE  NO
J_0703_IN        -16.44     FREE  NO
J_0864_OUT       -16.44     FREE  NO
J_0865_IN        -16.44     FREE  NO
J_0021_IN        0.00       FREE  NO
J_0033_OUT       0.00       FREE  NO
J_0056_OUT       0.00       FREE  NO

[CONDUITS]
;;Name           From             To               Length     Manning    InOffset   OutOffset  InitFlow   MaxFlow
C_0000           J_0000_IN        J_0000_OUT       832.47     0.0150     0.0        0.0        0.0        0.0
C_0001           J_0001_IN        J_0001_OUT       455.58     0.0150     0.0        0.0        0.0        0.0
C_0002           J_0002_IN        J_0002_OUT       145565.18  0.0150     0.0        0.0        0.0        0.0
C_0003           J_0003_IN        J_0003_OUT       362.36     0.0150     0.0        0.0        0.0        0.0
C_0004           J_0004_IN        J_0004_OUT       2032.83    0.0150     0.0        0.0        0.0        0.0
C_0005           J_0005_IN        J_0005_OUT       1971.49    0.0150     0.0        0.0        0.0        0.0
C_0006           J_0006_IN        J_0006_OUT       6141.80    0.0150     0.0        0.0        0.0        0.0
C_0007           J_0007_IN        J_0007_OUT       2859.03    0.0150     0.0        0.0        0.0        0.0
C_0008           J_0008_IN        J_0008_OUT       1169.40    0.0150     0.0        0.0        0.0        0.0
C_0009           J_0009_IN        J_0009_OUT       401.50     0.0150     0.0        0.0        0.0        0.0
C_0010           J_0010_IN        J_0010_OUT       97.17      0.0150     0.0        0.0        0.0        0.0
C_0011           J_0011_IN        J_0011_OUT       170.54     0.0150     0.0        0.0        0.0        0.0
C_0012           J_0012_IN        J_0012_OUT       597.91     0.0150     0.0        0.0        0.0        0.0
C_0013           J_0013_IN        J_0013_OUT       2430.21    0.0150     0.0        0.0        0.0        0.0
C_0014           J_0014_IN        J_0014_OUT       2483.53    0.0150     0.0        0.0        0.0        0.0
C_0015           J_0015_IN        J_0015_OUT       1133.94    0.0150     0.0        0.0        0.0        0.0
C_0016           J_0016_IN        J_0016_OUT       2890.35    0.0150     0.0        0.0        0.0        0.0
C_0017           J_0017_IN        J_0017_OUT       86.94      0.0150     0.0        0.0        0.0        0.0
C_0018           J_0018_IN        J_0018_OUT       419.10     0.0150     0.0        0.0        0.0        0.0
C_0019           J_0019_IN        J_0019_OUT       584.33     0.0150     0.0        0.0        0.0        0.0
C_0020           J_0020_IN        J_0020_OUT       1300.49    0.0150     0.0        0.0        0.0        0.0
C_0021           J_0021_IN        J_0021_OUT       530.39     0.0150     0.0        0.0        0.0        0.0
C_0022           J_0022_IN        J_0022_OUT       1222.07    0.0150     0.0        0.0        0.0        0.0
C_0023           J_0023_IN        J_0023_OUT       283.41     0.0150     0.0        0.0        0.0        0.0
C_0024           J_0024_IN        J_0024_OUT       446.38     0.0150     0.0        0.0        0.0        0.0
C_0025           J_0025_IN        J_0025_OUT       2815.27    0.0150     0.0        0.0        0.0        0.0
C_0026           J_0026_IN        J_0026_OUT       404.58     0.0150     0.0        0.0        0.0        0.0
C_0027           J_0027_IN        J_0027_OUT       196.54     0.0150     0.0        0.0        0.0        0.0
C_0028           J_0028_IN        J_0028_OUT       102.67     0.0150     0.0        0.0        0.0        0.0
C_0029           J_0029_IN        J_0029_OUT       133.49     0.0150     0.0        0.0        0.0        0.0
C_0030           J_0030_IN        J_0030_OUT       81.23      0.0150     0.0        0.0        0.0        0.0
C_0031           J_0031_IN        J_0031_OUT       494.07     0.0150     0.0        0.0        0.0        0.0
C_0032           J_0032_IN        J_0032_OUT       516.00     0.0150     0.0        0.0        0.0        0.0
C_0033           J_0033_IN        J_0033_OUT       121.31     0.0150     0.0        0.0        0.0        0.0
C_0034           J_0034_IN        J_0034_OUT       904.97     0.0150     0.0        0.0        0.0        0.0
C_0035           J_0035_IN        J_0035_OUT       333.47     0.0150     0.0        0.0        0.0        0.0
C_0036           J_0036_IN        J_0036_OUT       412.06     0.0150     0.0        0.0        0.0        0.0
C_0037           J_0037_IN        J_0037_OUT       504.77     0.0150     0.0        0.0        0.0        0.0
C_0038           J_0038_IN        J_0038_OUT       1079.09    0.0150     0.0        0.0        0.0        0.0
C_0039           J_0039_IN        J_0039_OUT       216.25     0.0150     0.0        0.0        0.0        0.0
C_0040           J_0040_IN        J_0040_OUT       1028.91    0.0150     0.0        0.0        0.0        0.0
C_0041           J_0041_IN        J_0041_OUT       2033.92    0.0150     0.0        0.0        0.0        0.0
C_0042           J_0042_IN        J_0042_OUT       280.68     0.0150     0.0        0.0        0.0        0.0
C_0043           J_0043_IN        J_0043_OUT       1990.59    0.0150     0.0        0.0        0.0        0.0
C_0044           J_0044_IN        J_0044_OUT       284.71     0.0150     0.0        0.0        0.0        0.0
C_0045           J_0045_IN        J_0045_OUT       789.86     0.0150     0.0        0.0        0.0        0.0
C_0046           J_0046_IN        J_0046_OUT       2899.83    0.0150     0.0        0.0        0.0        0.0
C_0047           J_0047_IN        J_0047_OUT       399.49     0.0150     0.0        0.0        0.0        0.0
C_0048           J_0048_IN        J_0048_OUT       1304.77    0.0150     0.0        0.0        0.0        0.0
C_0049           J_0049_IN        J_0049_OUT       944.16     0.0150     0.0        0.0        0.0        0.0
C_0050           J_0050_IN        J_0050_OUT       196.07     0.0150     0.0        0.0        0.0        0.0
C_0051           J_0051_IN        J_0051_OUT       62.58      0.0150     0.0        0.0        0.0        0.0
C_0052           J_0052_IN        J_0052_OUT       637.14     0.0150     0.0        0.0        0.0        0.0
C_0053           J_0053_IN        J_0053_OUT       1296.50    0.0150     0.0        0.0        0.0        0.0
C_0054           J_0054_IN        J_0054_OUT       2420.93    0.0150     0.0        0.0        0.0        0.0
C_0055           J_0055_IN        J_0055_OUT       1800.98    0.0150     0.0        0.0        0.0        0.0
C_0056           J_0056_IN        J_0056_OUT       1453.92    0.0150     0.0        0.0        0.0        0.0
C_0057           J_0057_IN        J_0057_OUT       581.69     0.0150     0.0        0.0        0.0        0.0
C_0058           J_0058_IN        J_0058_OUT       321.76     0.0150     0.0        0.0        0.0        0.0
C_0059           J_0059_IN        J_0059_OUT       834.48     0.0150     0.0        0.0        0.0        0.0
C_0060           J_0060_IN        J_0060_OUT       2980.23    0.0150     0.0        0.0        0.0        0.0
C_0061           J_0061_IN        J_0061_OUT       169.69     0.0150     0.0        0.0        0.0        0.0
C_0062           J_0062_IN        J_0062_OUT       1006.29    0.0150     0.0        0.0        0.0        0.0
C_0063           J_0063_IN        J_0063_OUT       3176.41    0.0150     0.0        0.0        0.0        0.0
C_0064           J_0064_IN        J_0064_OUT       1329.67    0.0150     0.0        0.0        0.0        0.0
C_0065           J_0065_IN        J_0065_OUT       225.34     0.0150     0.0        0.0        0.0        0.0
C_0066           J_0066_IN        J_0066_OUT       873.38     0.0150     0.0        0.0        0.0        0.0
C_0067           J_0067_IN        J_0067_OUT       1063.88    0.0150     0.0        0.0        0.0        0.0
C_0068           J_0068_IN        J_0068_OUT       400.59     0.0150     0.0        0.0        0.0        0.0
C_0069           J_0069_IN        J_0069_OUT       407.71     0.0150     0.0        0.0        0.0        0.0
C_0070           J_0070_IN        J_0070_OUT       2045.33    0.0150     0.0        0.0        0.0        0.0
C_0071           J_0071_IN        J_0071_OUT       2914.83    0.0150     0.0        0.0        0.0        0.0
C_0072           J_0072_IN        J_0072_OUT       7286.46    0.0150     0.0        0.0        0.0        0.0
C_0073           J_0073_IN        J_0073_OUT       395.80     0.0150     0.0        0.0        0.0        0.0
C_0074           J_0074_IN        J_0074_OUT       618.07     0.0150     0.0        0.0        0.0        0.0
C_0075           J_0075_IN        J_0075_OUT       833.76     0.0150     0.0        0.0        0.0        0.0
C_0076           J_0076_IN        J_0076_OUT       2740.72    0.0150     0.0        0.0        0.0        0.0
C_0077           J_0077_IN        J_0077_OUT       1156.73    0.0150     0.0        0.0        0.0        0.0
C_0078           J_0078_IN        J_0078_OUT       618.16     0.0150     0.0        0.0        0.0        0.0
C_0079           J_0079_IN        J_0079_OUT       240.21     0.0150     0.0        0.0        0.0        0.0
C_0080           J_0080_IN        J_0080_OUT       5689.30    0.0150     0.0        0.0        0.0        0.0
C_0081           J_0081_IN        J_0081_OUT       9167.46    0.0150     0.0        0.0        0.0        0.0
C_0082           J_0082_IN        J_0082_OUT       1980.16    0.0150     0.0        0.0        0.0        0.0
C_0083           J_0083_IN        J_0083_OUT       836.17     0.0150     0.0        0.0        0.0        0.0
C_0084           J_0084_IN        J_0084_OUT       12300.15   0.0150     0.0        0.0        0.0        0.0
C_0085           J_0085_IN        J_0085_OUT       109.98     0.0150     0.0        0.0        0.0        0.0
C_0086           J_0086_IN        J_0086_OUT       410.34     0.0150     0.0        0.0        0.0        0.0
C_0087           J_0087_IN        J_0087_OUT       211.63     0.0150     0.0        0.0        0.0        0.0
C_0088           J_0088_IN        J_0088_OUT       162.92     0.0150     0.0        0.0        0.0        0.0
C_0089           J_0089_IN        J_0089_OUT       572.68     0.0150     0.0        0.0        0.0        0.0
C_0090           J_0090_IN        J_0090_OUT       260.07     0.0150     0.0        0.0        0.0        0.0
C_0091           J_0091_IN        J_0091_OUT       84.97      0.0150     0.0        0.0        0.0        0.0
C_0092           J_0092_IN        J_0092_OUT       1640.72    0.0150     0.0        0.0        0.0        0.0
C_0093           J_0093_IN        J_0093_OUT       1053.23    0.0150     0.0        0.0        0.0        0.0
C_0094           J_0094_IN        J_0094_OUT       789.24     0.0150     0.0        0.0        0.0        0.0
C_0095           J_0095_IN        J_0095_OUT       954.41     0.0150     0.0        0.0        0.0        0.0
C_0096           J_0096_IN        J_0096_OUT       715.41     0.0150     0.0        0.0        0.0        0.0
C_0097           J_0097_IN        J_0097_OUT       1718.05    0.0150     0.0        0.0        0.0        0.0
C_0098           J_0098_IN        J_0098_OUT       1721.36    0.0150     0.0        0.0        0.0        0.0
C_0099           J_0099_IN        J_0099_OUT       5047.55    0.0150     0.0        0.0        0.0        0.0
C_0100           J_0100_IN        J_0100_OUT       965.71     0.0150     0.0        0.0        0.0        0.0
C_0101           J_0101_IN        J_0101_OUT       2700.62    0.0150     0.0        0.0        0.0        0.0
C_0102           J_0102_IN        J_0102_OUT       2563.45    0.0150     0.0        0.0        0.0        0.0
C_0103           J_0103_IN        J_0103_OUT       393.55     0.0150     0.0        0.0        0.0        0.0
C_0104           J_0104_IN        J_0104_OUT       15.05      0.0150     0.0        0.0        0.0        0.0
C_0105           J_0105_IN        J_0105_OUT       4747.23    0.0150     0.0        0.0        0.0        0.0
C_0106           J_0106_IN        J_0106_OUT       496.10     0.0150     0.0        0.0        0.0        0.0
C_0107           J_0107_IN        J_0107_OUT       765.84     0.0150     0.0        0.0        0.0        0.0
C_0108           J_0108_IN        J_0108_OUT       4012.61    0.0150     0.0        0.0        0.0        0.0
C_0109           J_0109_IN        J_0109_OUT       709.97     0.0150     0.0        0.0        0.0        0.0
C_0110           J_0110_IN        J_0110_OUT       483.62     0.0150     0.0        0.0        0.0        0.0
C_0111           J_0111_IN        J_0111_OUT       913.02     0.0150     0.0        0.0        0.0        0.0
C_0112           J_0112_IN        J_0112_OUT       1043.67    0.0150     0.0        0.0        0.0        0.0
C_0113           J_0113_IN        J_0113_OUT       511.69     0.0150     0.0        0.0        0.0        0.0
C_0114           J_0114_IN        J_0114_OUT       511.57     0.0150     0.0        0.0        0.0        0.0
C_0115           J_0115_IN        J_0115_OUT       31.87      0.0150     0.0        0.0        0.0        0.0
C_0116           J_0116_IN        J_0116_OUT       137.80     0.0150     0.0        0.0        0.0        0.0
C_0117           J_0117_IN        J_0117_OUT       159.99     0.0150     0.0        0.0        0.0        0.0
C_0118           J_0118_IN        J_0118_OUT       1010.31    0.0150     0.0        0.0        0.0        0.0
C_0119           J_0119_IN        J_0119_OUT       3958.96    0.0150     0.0        0.0        0.0        0.0
C_0120           J_0120_IN        J_0120_OUT       588.26     0.0150     0.0        0.0        0.0        0.0
C_0121           J_0121_IN        J_0121_OUT       847.99     0.0150     0.0        0.0        0.0        0.0
C_0122           J_0122_IN        J_0122_OUT       920.00     0.0150     0.0        0.0        0.0        0.0
C_0123           J_0123_IN        J_0123_OUT       489.29     0.0150     0.0        0.0        0.0        0.0
C_0124           J_0124_IN        J_0124_OUT       4867.73    0.0150     0.0        0.0        0.0        0.0
C_0125           J_0125_IN        J_0125_OUT       3270.54    0.0150     0.0        0.0        0.0        0.0
C_0126           J_0126_IN        J_0126_OUT       343.61     0.0150     0.0        0.0        0.0        0.0
C_0127           J_0127_IN        J_0127_OUT       421.44     0.0150     0.0        0.0        0.0        0.0
C_0128           J_0128_IN        J_0128_OUT       1236.52    0.0150     0.0        0.0        0.0        0.0
C_0129           J_0129_IN        J_0129_OUT       663.84     0.0150     0.0        0.0        0.0        0.0
C_0130           J_0130_IN        J_0130_OUT       1111.56    0.0150     0.0        0.0        0.0        0.0
C_0131           J_0131_IN        J_0131_OUT       265.20     0.0150     0.0        0.0        0.0        0.0
C_0132           J_0132_IN        J_0132_OUT       21.90      0.0150     0.0        0.0        0.0        0.0
C_0133           J_0133_IN        J_0133_OUT       202.30     0.0150     0.0        0.0        0.0        0.0
C_0134           J_0134_IN        J_0134_OUT       211.80     0.0150     0.0        0.0        0.0        0.0
C_0135           J_0135_IN        J_0135_OUT       436.87     0.0150     0.0        0.0        0.0        0.0
C_0136           J_0136_IN        J_0136_OUT       2286.67    0.0150     0.0        0.0        0.0        0.0
C_0137           J_0137_IN        J_0137_OUT       4459.22    0.0150     0.0        0.0        0.0        0.0
C_0138           J_0138_IN        J_0138_OUT       1827.46    0.0150     0.0        0.0        0.0        0.0
C_0139           J_0139_IN        J_0139_OUT       89.55      0.0150     0.0        0.0        0.0        0.0
C_0140           J_0140_IN        J_0140_OUT       91.68      0.0150     0.0        0.0        0.0        0.0
C_0141           J_0141_IN        J_0141_OUT       536.33     0.0150     0.0        0.0        0.0        0.0
C_0142           J_0142_IN        J_0142_OUT       18.60      0.0150     0.0        0.0        0.0        0.0
C_0143           J_0143_IN        J_0143_OUT       53.95      0.0150     0.0        0.0        0.0        0.0
C_0144           J_0144_IN        J_0144_OUT       863.96     0.0150     0.0        0.0        0.0        0.0
C_0145           J_0145_IN        J_0145_OUT       71.76      0.0150     0.0        0.0        0.0        0.0
C_0146           J_0146_IN        J_0146_OUT       1591.55    0.0150     0.0        0.0        0.0        0.0
C_0147           J_0147_IN        J_0147_OUT       1605.97    0.0150     0.0        0.0        0.0        0.0
C_0148           J_0148_IN        J_0148_OUT       246.60     0.0150     0.0        0.0        0.0        0.0
C_0149           J_0149_IN        J_0149_OUT       697.88     0.0150     0.0        0.0        0.0        0.0
C_0150           J_0150_IN        J_0150_OUT       322.05     0.0150     0.0        0.0        0.0        0.0
C_0151           J_0151_IN        J_0151_OUT       1718.54    0.0150     0.0        0.0        0.0        0.0
C_0152           J_0152_IN        J_0152_OUT       417.35     0.0150     0.0        0.0        0.0        0.0
C_0153           J_0153_IN        J_0153_OUT       3376.87    0.0150     0.0        0.0        0.0        0.0
C_0154           J_0154_IN        J_0154_OUT       10.00      0.0150     0.0        0.0        0.0        0.0
C_0155           J_0155_IN        J_0155_OUT       229.92     0.0150     0.0        0.0        0.0        0.0
C_0156           J_0156_IN        J_0156_OUT       347.12     0.0150     0.0        0.0        0.0        0.0
C_0157           J_0157_IN        J_0157_OUT       366.14     0.0150     0.0        0.0        0.0        0.0
C_0158           J_0158_IN        J_0158_OUT       2188.19    0.0150     0.0        0.0        0.0        0.0
C_0159           J_0159_IN        J_0159_OUT       56.10      0.0150     0.0        0.0        0.0        0.0
C_0160           J_0160_IN        J_0160_OUT       2526.95    0.0150     0.0        0.0        0.0        0.0
C_0161           J_0161_IN        J_0161_OUT       35.14      0.0150     0.0        0.0        0.0        0.0
C_0162           J_0162_IN        J_0162_OUT       104.53     0.0150     0.0        0.0        0.0        0.0
C_0163           J_0163_IN        J_0163_OUT       431.06     0.0150     0.0        0.0        0.0        0.0
C_0164           J_0164_IN        J_0164_OUT       766.66     0.0150     0.0        0.0        0.0        0.0
C_0165           J_0165_IN        J_0165_OUT       595.18     0.0150     0.0        0.0        0.0        0.0
C_0166           J_0166_IN        J_0166_OUT       47.98      0.0150     0.0        0.0        0.0        0.0
C_0167           J_0167_IN        J_0167_OUT       3852.12    0.0150     0.0        0.0        0.0        0.0
C_0168           J_0168_IN        J_0168_OUT       30.10      0.0150     0.0        0.0        0.0        0.0
C_0169           J_0169_IN        J_0169_OUT       380.64     0.0150     0.0        0.0        0.0        0.0
C_0170           J_0170_IN        J_0170_OUT       1004.73    0.0150     0.0        0.0        0.0        0.0
C_0171           J_0171_IN        J_0171_OUT       141.69     0.0150     0.0        0.0        0.0        0.0
C_0172           J_0172_IN        J_0172_OUT       158.98     0.0150     0.0        0.0        0.0        0.0
C_0173           J_0173_IN        J_0173_OUT       347.26     0.0150     0.0        0.0        0.0        0.0
C_0174           J_0174_IN        J_0174_OUT       364.27     0.0150     0.0        0.0        0.0        0.0
C_0175           J_0175_IN        J_0175_OUT       356.38     0.0150     0.0        0.0        0.0        0.0
C_0176           J_0176_IN        J_0176_OUT       3514.86    0.0150     0.0        0.0        0.0        0.0
C_0177           J_0177_IN        J_0177_OUT       729.31     0.0150     0.0        0.0        0.0        0.0
C_0178           J_0178_IN        J_0178_OUT       125.28     0.0150     0.0        0.0        0.0        0.0
C_0179           J_0179_IN        J_0179_OUT       73.13      0.0150     0.0        0.0        0.0        0.0
C_0180           J_0180_IN        J_0180_OUT       255.08     0.0150     0.0        0.0        0.0        0.0
C_0181           J_0181_IN        J_0181_OUT       166.47     0.0150     0.0        0.0        0.0        0.0
C_0182           J_0182_IN        J_0182_OUT       55.81      0.0150     0.0        0.0        0.0        0.0
C_0183           J_0183_IN        J_0183_OUT       195.18     0.0150     0.0        0.0        0.0        0.0
C_0184           J_0184_IN        J_0184_OUT       1126.40    0.0150     0.0        0.0        0.0        0.0
C_0185           J_0185_IN        J_0185_OUT       538.70     0.0150     0.0        0.0        0.0        0.0
C_0186           J_0186_IN        J_0186_OUT       435.09     0.0150     0.0        0.0        0.0        0.0
C_0187           J_0187_IN        J_0187_OUT       871.38     0.0150     0.0        0.0        0.0        0.0
C_0188           J_0188_IN        J_0188_OUT       282.32     0.0150     0.0        0.0        0.0        0.0
C_0189           J_0189_IN        J_0189_OUT       803.18     0.0150     0.0        0.0        0.0        0.0
C_0190           J_0190_IN        J_0190_OUT       379.89     0.0150     0.0        0.0        0.0        0.0
C_0191           J_0191_IN        J_0191_OUT       230.35     0.0150     0.0        0.0        0.0        0.0
C_0192           J_0192_IN        J_0192_OUT       410.15     0.0150     0.0        0.0        0.0        0.0
C_0193           J_0193_IN        J_0193_OUT       584.82     0.0150     0.0        0.0        0.0        0.0
C_0194           J_0194_IN        J_0194_OUT       332.22     0.0150     0.0        0.0        0.0        0.0
C_0195           J_0195_IN        J_0195_OUT       1354.53    0.0150     0.0        0.0        0.0        0.0
C_0196           J_0196_IN        J_0196_OUT       407.15     0.0150     0.0        0.0        0.0        0.0
C_0197           J_0197_IN        J_0197_OUT       200.80     0.0150     0.0        0.0        0.0        0.0
C_0198           J_0198_IN        J_0198_OUT       571.34     0.0150     0.0        0.0        0.0        0.0
C_0199           J_0199_IN        J_0199_OUT       546.00     0.0150     0.0        0.0        0.0        0.0
C_0200           J_0200_IN        J_0200_OUT       22.71      0.0150     0.0        0.0        0.0        0.0
C_0201           J_0201_IN        J_0201_OUT       1252.13    0.0150     0.0        0.0        0.0        0.0
C_0202           J_0202_IN        J_0202_OUT       396.58     0.0150     0.0        0.0        0.0        0.0
C_0203           J_0203_IN        J_0203_OUT       823.10     0.0150     0.0        0.0        0.0        0.0
C_0204           J_0204_IN        J_0204_OUT       142.35     0.0150     0.0        0.0        0.0        0.0
C_0205           J_0205_IN        J_0205_OUT       449.95     0.0150     0.0        0.0        0.0        0.0
C_0206           J_0206_IN        J_0206_OUT       272.28     0.0150     0.0        0.0        0.0        0.0
C_0207           J_0207_IN        J_0207_OUT       292.55     0.0150     0.0        0.0        0.0        0.0
C_0208           J_0208_IN        J_0208_OUT       138.22     0.0150     0.0        0.0        0.0        0.0
C_0209           J_0209_IN        J_0209_OUT       111.97     0.0150     0.0        0.0        0.0        0.0
C_0210           J_0210_IN        J_0210_OUT       1839.52    0.0150     0.0        0.0        0.0        0.0
C_0211           J_0211_IN        J_0211_OUT       279.56     0.0150     0.0        0.0        0.0        0.0
C_0212           J_0212_IN        J_0212_OUT       289.01     0.0150     0.0        0.0        0.0        0.0
C_0213           J_0213_IN        J_0213_OUT       158.33     0.0150     0.0        0.0        0.0        0.0
C_0214           J_0214_IN        J_0214_OUT       253.27     0.0150     0.0        0.0        0.0        0.0
C_0215           J_0215_IN        J_0215_OUT       211.14     0.0150     0.0        0.0        0.0        0.0
C_0216           J_0216_IN        J_0216_OUT       285.84     0.0150     0.0        0.0        0.0        0.0
C_0217           J_0217_IN        J_0217_OUT       419.17     0.0150     0.0        0.0        0.0        0.0
C_0218           J_0218_IN        J_0218_OUT       435.38     0.0150     0.0        0.0        0.0        0.0
C_0219           J_0219_IN        J_0219_OUT       41.16      0.0150     0.0        0.0        0.0        0.0
C_0220           J_0220_IN        J_0220_OUT       97.35      0.0150     0.0        0.0        0.0        0.0
C_0221           J_0221_IN        J_0221_OUT       74.20      0.0150     0.0        0.0        0.0        0.0
C_0222           J_0222_IN        J_0222_OUT       1098.72    0.0150     0.0        0.0        0.0        0.0
C_0223           J_0223_IN        J_0223_OUT       202.30     0.0150     0.0        0.0        0.0        0.0
C_0224           J_0224_IN        J_0224_OUT       948.13     0.0150     0.0        0.0        0.0        0.0
C_0225           J_0225_IN        J_0225_OUT       632.09     0.0150     0.0        0.0        0.0        0.0
C_0226           J_0226_IN        J_0226_OUT       839.26     0.0150     0.0        0.0        0.0        0.0
C_0227           J_0227_IN        J_0227_OUT       519.10     0.0150     0.0        0.0        0.0        0.0
C_0228           J_0228_IN        J_0228_OUT       718.84     0.0150     0.0        0.0        0.0        0.0
C_0229           J_0229_IN        J_0229_OUT       1105.97    0.0150     0.0        0.0        0.0        0.0
C_0230           J_0230_IN        J_0230_OUT       965.89     0.0150     0.0        0.0        0.0        0.0
C_0231           J_0231_IN        J_0231_OUT       354.27     0.0150     0.0        0.0        0.0        0.0
C_0232           J_0232_IN        J_0232_OUT       422.35     0.0150     0.0        0.0        0.0        0.0
C_0233           J_0233_IN        J_0233_OUT       1011.28    0.0150     0.0        0.0        0.0        0.0
C_0234           J_0234_IN        J_0234_OUT       771.35     0.0150     0.0        0.0        0.0        0.0
C_0235           J_0235_IN        J_0235_OUT       654.53     0.0150     0.0        0.0        0.0        0.0
C_0236           J_0236_IN        J_0236_OUT       2336.65    0.0150     0.0        0.0        0.0        0.0
C_0237           J_0237_IN        J_0237_OUT       378.49     0.0150     0.0        0.0        0.0        0.0
C_0238           J_0238_IN        J_0238_OUT       750.31     0.0150     0.0        0.0        0.0        0.0
C_0239           J_0239_IN        J_0239_OUT       663.97     0.0150     0.0        0.0        0.0        0.0
C_0240           J_0240_IN        J_0240_OUT       180.13     0.0150     0.0        0.0        0.0        0.0
C_0241           J_0241_IN        J_0241_OUT       408.80     0.0150     0.0        0.0        0.0        0.0
C_0242           J_0242_IN        J_0242_OUT       122.17     0.0150     0.0        0.0        0.0        0.0
C_0243           J_0243_IN        J_0243_OUT       613.77     0.0150     0.0        0.0        0.0        0.0
C_0244           J_0244_IN        J_0244_OUT       800.79     0.0150     0.0        0.0        0.0        0.0
C_0245           J_0245_IN        J_0245_OUT       253.35     0.0150     0.0        0.0        0.0        0.0
C_0246           J_0246_IN        J_0246_OUT       585.64     0.0150     0.0        0.0        0.0        0.0
C_0247           J_0247_IN        J_0247_OUT       822.98     0.0150     0.0        0.0        0.0        0.0
C_0248           J_0248_IN        J_0248_OUT       332.63     0.0150     0.0        0.0        0.0        0.0
C_0249           J_0249_IN        J_0249_OUT       426.39     0.0150     0.0        0.0        0.0        0.0
C_0250           J_0250_IN        J_0250_OUT       128.79     0.0150     0.0        0.0        0.0        0.0
C_0251           J_0251_IN        J_0251_OUT       93.29      0.0150     0.0        0.0        0.0        0.0
C_0252           J_0252_IN        J_0252_OUT       349.40     0.0150     0.0        0.0        0.0        0.0
C_0253           J_0253_IN        J_0253_OUT       862.84     0.0150     0.0        0.0        0.0        0.0
C_0254           J_0254_IN        J_0254_OUT       204.31     0.0150     0.0        0.0        0.0        0.0
C_0255           J_0255_IN        J_0255_OUT       2699.77    0.0150     0.0        0.0        0.0        0.0
C_0256           J_0256_IN        J_0256_OUT       28.67      0.0150     0.0        0.0        0.0        0.0
C_0257           J_0257_IN        J_0257_OUT       34.45      0.0150     0.0        0.0        0.0        0.0
C_0258           J_0258_IN        J_0258_OUT       242.21     0.0150     0.0        0.0        0.0        0.0
C_0259           J_0259_IN        J_0259_OUT       751.97     0.0150     0.0        0.0        0.0        0.0
C_0260           J_0260_IN        J_0260_OUT       28.62      0.0150     0.0        0.0        0.0        0.0
C_0261           J_0261_IN        J_0261_OUT       55.16      0.0150     0.0        0.0        0.0        0.0
C_0262           J_0262_IN        J_0262_OUT       173.10     0.0150     0.0        0.0        0.0        0.0
C_0263           J_0263_IN        J_0263_OUT       187.88     0.0150     0.0        0.0        0.0        0.0
C_0264           J_0264_IN        J_0264_OUT       99.15      0.0150     0.0        0.0        0.0        0.0
C_0265           J_0265_IN        J_0265_OUT       667.30     0.0150     0.0        0.0        0.0        0.0
C_0266           J_0266_IN        J_0266_OUT       121.07     0.0150     0.0        0.0        0.0        0.0
C_0267           J_0267_IN        J_0267_OUT       1045.34    0.0150     0.0        0.0        0.0        0.0
C_0268           J_0268_IN        J_0268_OUT       313.66     0.0150     0.0        0.0        0.0        0.0
C_0269           J_0269_IN        J_0269_OUT       3261.45    0.0150     0.0        0.0        0.0        0.0
C_0270           J_0270_IN        J_0270_OUT       56.89      0.0150     0.0        0.0        0.0        0.0
C_0271           J_0271_IN        J_0271_OUT       679.97     0.0150     0.0        0.0        0.0        0.0
C_0272           J_0272_IN        J_0272_OUT       64.76      0.0150     0.0        0.0        0.0        0.0
C_0273           J_0273_IN        J_0273_OUT       12.95      0.0150     0.0        0.0        0.0        0.0
C_0274           J_0274_IN        J_0274_OUT       1686.84    0.0150     0.0        0.0        0.0        0.0
C_0275           J_0275_IN        J_0275_OUT       1839.44    0.0150     0.0        0.0        0.0        0.0
C_0276           J_0276_IN        J_0276_OUT       216.71     0.0150     0.0        0.0        0.0        0.0
C_0277           J_0277_IN        J_0277_OUT       71.35      0.0150     0.0        0.0        0.0        0.0
C_0278           J_0278_IN        J_0278_OUT       14.64      0.0150     0.0        0.0        0.0        0.0
C_0279           J_0279_IN        J_0279_OUT       172.23     0.0150     0.0        0.0        0.0        0.0
C_0280           J_0280_IN        J_0280_OUT       121.26     0.0150     0.0        0.0        0.0        0.0
C_0281           J_0281_IN        J_0281_OUT       212.43     0.0150     0.0        0.0        0.0        0.0
C_0282           J_0282_IN        J_0282_OUT       507.70     0.0150     0.0        0.0        0.0        0.0
C_0283           J_0283_IN        J_0283_OUT       187.11     0.0150     0.0        0.0        0.0        0.0
C_0284           J_0284_IN        J_0284_OUT       596.54     0.0150     0.0        0.0        0.0        0.0
C_0285           J_0285_IN        J_0285_OUT       53.93      0.0150     0.0        0.0        0.0        0.0
C_0286           J_0286_IN        J_0286_OUT       231.66     0.0150     0.0        0.0        0.0        0.0
C_0287           J_0287_IN        J_0287_OUT       1035.93    0.0150     0.0        0.0        0.0        0.0
C_0288           J_0288_IN        J_0288_OUT       892.19     0.0150     0.0        0.0        0.0        0.0
C_0289           J_0289_IN        J_0289_OUT       78.17      0.0150     0.0        0.0        0.0        0.0
C_0290           J_0290_IN        J_0290_OUT       99.66      0.0150     0.0        0.0        0.0        0.0
C_0291           J_0291_IN        J_0291_OUT       341.63     0.0150     0.0        0.0        0.0        0.0
C_0292           J_0292_IN        J_0292_OUT       912.62     0.0150     0.0        0.0        0.0        0.0
C_0293           J_0293_IN        J_0293_OUT       620.57     0.0150     0.0        0.0        0.0        0.0
C_0294           J_0294_IN        J_0294_OUT       2303.62    0.0150     0.0        0.0        0.0        0.0
C_0295           J_0295_IN        J_0295_OUT       1224.09    0.0150     0.0        0.0        0.0        0.0
C_0296           J_0296_IN        J_0296_OUT       118.95     0.0150     0.0        0.0        0.0        0.0
C_0297           J_0297_IN        J_0297_OUT       40.78      0.0150     0.0        0.0        0.0        0.0
C_0298           J_0298_IN        J_0298_OUT       3272.85    0.0150     0.0        0.0        0.0        0.0
C_0299           J_0299_IN        J_0299_OUT       68.27      0.0150     0.0        0.0        0.0        0.0
C_0300           J_0300_IN        J_0300_OUT       1136.17    0.0150     0.0        0.0        0.0        0.0
C_0301           J_0301_IN        J_0301_OUT       265.79     0.0150     0.0        0.0        0.0        0.0
C_0302           J_0302_IN        J_0302_OUT       211.29     0.0150     0.0        0.0        0.0        0.0
C_0303           J_0303_IN        J_0303_OUT       76.17      0.0150     0.0        0.0        0.0        0.0
C_0304           J_0304_IN        J_0304_OUT       231.30     0.0150     0.0        0.0        0.0        0.0
C_0305           J_0305_IN        J_0305_OUT       1732.39    0.0150     0.0        0.0        0.0        0.0
C_0306           J_0306_IN        J_0306_OUT       1014.25    0.0150     0.0        0.0        0.0        0.0
C_0307           J_0307_IN        J_0307_OUT       138.70     0.0150     0.0        0.0        0.0        0.0
C_0308           J_0308_IN        J_0308_OUT       337.65     0.0150     0.0        0.0        0.0        0.0
C_0309           J_0309_IN        J_0309_OUT       509.09     0.0150     0.0        0.0        0.0        0.0
C_0310           J_0310_IN        J_0310_OUT       35.08      0.0150     0.0        0.0        0.0        0.0
C_0311           J_0311_IN        J_0311_OUT       357.07     0.0150     0.0        0.0        0.0        0.0
C_0312           J_0312_IN        J_0312_OUT       180.97     0.0150     0.0        0.0        0.0        0.0
C_0313           J_0313_IN        J_0313_OUT       29.89      0.0150     0.0        0.0        0.0        0.0
C_0314           J_0314_IN        J_0314_OUT       560.37     0.0150     0.0        0.0        0.0        0.0
C_0315           J_0315_IN        J_0315_OUT       509.16     0.0150     0.0        0.0        0.0        0.0
C_0316           J_0316_IN        J_0316_OUT       144.89     0.0150     0.0        0.0        0.0        0.0
C_0317           J_0317_IN        J_0317_OUT       763.12     0.0150     0.0        0.0        0.0        0.0
C_0318           J_0318_IN        J_0318_OUT       1434.97    0.0150     0.0        0.0        0.0        0.0
C_0319           J_0319_IN        J_0319_OUT       314.80     0.0150     0.0        0.0        0.0        0.0
C_0320           J_0320_IN        J_0320_OUT       1688.35    0.0150     0.0        0.0        0.0        0.0
C_0321           J_0321_IN        J_0321_OUT       797.19     0.0150     0.0        0.0        0.0        0.0
C_0322           J_0322_IN        J_0322_OUT       3435.99    0.0150     0.0        0.0        0.0        0.0
C_0323           J_0323_IN        J_0323_OUT       810.21     0.0150     0.0        0.0        0.0        0.0
C_0324           J_0324_IN        J_0324_OUT       230.93     0.0150     0.0        0.0        0.0        0.0
C_0325           J_0325_IN        J_0325_OUT       953.20     0.0150     0.0        0.0        0.0        0.0
C_0326           J_0326_IN        J_0326_OUT       336.30     0.0150     0.0        0.0        0.0        0.0
C_0327           J_0327_IN        J_0327_OUT       391.54     0.0150     0.0        0.0        0.0        0.0
C_0328           J_0328_IN        J_0328_OUT       191.07     0.0150     0.0        0.0        0.0        0.0
C_0329           J_0329_IN        J_0329_OUT       691.50     0.0150     0.0        0.0        0.0        0.0
C_0330           J_0330_IN        J_0330_OUT       315.09     0.0150     0.0        0.0        0.0        0.0
C_0331           J_0331_IN        J_0331_OUT       637.02     0.0150     0.0        0.0        0.0        0.0
C_0332           J_0332_IN        J_0332_OUT       656.79     0.0150     0.0        0.0        0.0        0.0
C_0333           J_0333_IN        J_0333_OUT       389.01     0.0150     0.0        0.0        0.0        0.0
C_0334           J_0334_IN        J_0334_OUT       297.86     0.0150     0.0        0.0        0.0        0.0
C_0335           J_0335_IN        J_0335_OUT       26.28      0.0150     0.0        0.0        0.0        0.0
C_0336           J_0336_IN        J_0336_OUT       824.38     0.0150     0.0        0.0        0.0        0.0
C_0337           J_0337_IN        J_0337_OUT       94.38      0.0150     0.0        0.0        0.0        0.0
C_0338           J_0338_IN        J_0338_OUT       489.26     0.0150     0.0        0.0        0.0        0.0
C_0339           J_0339_IN        J_0339_OUT       97.08      0.0150     0.0        0.0        0.0        0.0
C_0340           J_0340_IN        J_0340_OUT       66.95      0.0150     0.0        0.0        0.0        0.0
C_0341           J_0341_IN        J_0341_OUT       189.37     0.0150     0.0        0.0        0.0        0.0
C_0342           J_0342_IN        J_0342_OUT       66.48      0.0150     0.0        0.0        0.0        0.0
C_0343           J_0343_IN        J_0343_OUT       494.55     0.0150     0.0        0.0        0.0        0.0
C_0344           J_0344_IN        J_0344_OUT       69.03      0.0150     0.0        0.0        0.0        0.0
C_0345           J_0345_IN        J_0345_OUT       71.20      0.0150     0.0        0.0        0.0        0.0
C_0346           J_0346_IN        J_0346_OUT       877.51     0.0150     0.0        0.0        0.0        0.0
C_0347           J_0347_IN        J_0347_OUT       39.29      0.0150     0.0        0.0        0.0        0.0
C_0348           J_0348_IN        J_0348_OUT       308.04     0.0150     0.0        0.0        0.0        0.0
C_0349           J_0349_IN        J_0349_OUT       745.27     0.0150     0.0        0.0        0.0        0.0
C_0350           J_0350_IN        J_0350_OUT       195.20     0.0150     0.0        0.0        0.0        0.0
C_0351           J_0351_IN        J_0351_OUT       285.04     0.0150     0.0        0.0        0.0        0.0
C_0352           J_0352_IN        J_0352_OUT       1330.31    0.0150     0.0        0.0        0.0        0.0
C_0353           J_0353_IN        J_0353_OUT       774.31     0.0150     0.0        0.0        0.0        0.0
C_0354           J_0354_IN        J_0354_OUT       508.09     0.0150     0.0        0.0        0.0        0.0
C_0355           J_0355_IN        J_0355_OUT       543.56     0.0150     0.0        0.0        0.0        0.0
C_0356           J_0356_IN        J_0356_OUT       570.62     0.0150     0.0        0.0        0.0        0.0
C_0357           J_0357_IN        J_0357_OUT       305.53     0.0150     0.0        0.0        0.0        0.0
C_0358           J_0358_IN        J_0358_OUT       326.37     0.0150     0.0        0.0        0.0        0.0
C_0359           J_0359_IN        J_0359_OUT       294.86     0.0150     0.0        0.0        0.0        0.0
C_0360           J_0360_IN        J_0360_OUT       2790.23    0.0150     0.0        0.0        0.0        0.0
C_0361           J_0361_IN        J_0361_OUT       486.74     0.0150     0.0        0.0        0.0        0.0
C_0362           J_0362_IN        J_0362_OUT       198.84     0.0150     0.0        0.0        0.0        0.0
C_0363           J_0363_IN        J_0363_OUT       69.04      0.0150     0.0        0.0        0.0        0.0
C_0364           J_0364_IN        J_0364_OUT       22.04      0.0150     0.0        0.0        0.0        0.0
C_0365           J_0365_IN        J_0365_OUT       25.96      0.0150     0.0        0.0        0.0        0.0
C_0366           J_0366_IN        J_0366_OUT       14.42      0.0150     0.0        0.0        0.0        0.0
C_0367           J_0367_IN        J_0367_OUT       171.17     0.0150     0.0        0.0        0.0        0.0
C_0368           J_0368_IN        J_0368_OUT       20.91      0.0150     0.0        0.0        0.0        0.0
C_0369           J_0369_IN        J_0369_OUT       220.05     0.0150     0.0        0.0        0.0        0.0
C_0370           J_0370_IN        J_0370_OUT       42.14      0.0150     0.0        0.0        0.0        0.0
C_0371           J_0371_IN        J_0371_OUT       139.98     0.0150     0.0        0.0        0.0        0.0
C_0372           J_0372_IN        J_0372_OUT       1243.58    0.0150     0.0        0.0        0.0        0.0
C_0373           J_0373_IN        J_0373_OUT       73.12      0.0150     0.0        0.0        0.0        0.0
C_0374           J_0374_IN        J_0374_OUT       81.90      0.0150     0.0        0.0        0.0        0.0
C_0375           J_0375_IN        J_0375_OUT       571.27     0.0150     0.0        0.0        0.0        0.0
C_0376           J_0376_IN        J_0376_OUT       64.17      0.0150     0.0        0.0        0.0        0.0
C_0377           J_0377_IN        J_0377_OUT       70.22      0.0150     0.0        0.0        0.0        0.0
C_0378           J_0378_IN        J_0378_OUT       873.70     0.0150     0.0        0.0        0.0        0.0
C_0379           J_0379_IN        J_0379_OUT       98.17      0.0150     0.0        0.0        0.0        0.0
C_0380           J_0380_IN        J_0380_OUT       611.52     0.0150     0.0        0.0        0.0        0.0
C_0381           J_0381_IN        J_0381_OUT       773.18     0.0150     0.0        0.0        0.0        0.0
C_0382           J_0382_IN        J_0382_OUT       211.71     0.0150     0.0        0.0        0.0        0.0
C_0383           J_0383_IN        J_0383_OUT       454.11     0.0150     0.0        0.0        0.0        0.0
C_0384           J_0384_IN        J_0384_OUT       629.44     0.0150     0.0        0.0        0.0        0.0
C_0385           J_0385_IN        J_0385_OUT       34.95      0.0150     0.0        0.0        0.0        0.0
C_0386           J_0386_IN        J_0386_OUT       167.40     0.0150     0.0        0.0        0.0        0.0
C_0387           J_0387_IN        J_0387_OUT       296.94     0.0150     0.0        0.0        0.0        0.0
C_0388           J_0388_IN        J_0388_OUT       1155.05    0.0150     0.0        0.0        0.0        0.0
C_0389           J_0389_IN        J_0389_OUT       120.53     0.0150     0.0        0.0        0.0        0.0
C_0390           J_0390_IN        J_0390_OUT       279.96     0.0150     0.0        0.0        0.0        0.0
C_0391           J_0391_IN        J_0391_OUT       569.86     0.0150     0.0        0.0        0.0        0.0
C_0392           J_0392_IN        J_0392_OUT       13.79      0.0150     0.0        0.0        0.0        0.0
C_0393           J_0393_IN        J_0393_OUT       26.31      0.0150     0.0        0.0        0.0        0.0
C_0394           J_0394_IN        J_0394_OUT       970.37     0.0150     0.0        0.0        0.0        0.0
C_0395           J_0395_IN        J_0395_OUT       23.49      0.0150     0.0        0.0        0.0        0.0
C_0396           J_0396_IN        J_0396_OUT       477.52     0.0150     0.0        0.0        0.0        0.0
C_0397           J_0397_IN        J_0397_OUT       12.86      0.0150     0.0        0.0        0.0        0.0
C_0398           J_0398_IN        J_0398_OUT       418.73     0.0150     0.0        0.0        0.0        0.0
C_0399           J_0399_IN        J_0399_OUT       10.00      0.0150     0.0        0.0        0.0        0.0
C_0400           J_0400_IN        J_0400_OUT       58.58      0.0150     0.0        0.0        0.0        0.0
C_0401           J_0401_IN        J_0401_OUT       554.45     0.0150     0.0        0.0        0.0        0.0
C_0402           J_0402_IN        J_0402_OUT       557.11     0.0150     0.0        0.0        0.0        0.0
C_0403           J_0403_IN        J_0403_OUT       26.59      0.0150     0.0        0.0        0.0        0.0
C_0404           J_0404_IN        J_0404_OUT       813.20     0.0150     0.0        0.0        0.0        0.0
C_0405           J_0405_IN        J_0405_OUT       24.14      0.0150     0.0        0.0        0.0        0.0
C_0406           J_0406_IN        J_0406_OUT       28.63      0.0150     0.0        0.0        0.0        0.0
C_0407           J_0407_IN        J_0407_OUT       10.00      0.0150     0.0        0.0        0.0        0.0
C_0408           J_0408_IN        J_0408_OUT       49.68      0.0150     0.0        0.0        0.0        0.0
C_0409           J_0409_IN        J_0409_OUT       10.00      0.0150     0.0        0.0        0.0        0.0
C_0410           J_0410_IN        J_0410_OUT       663.94     0.0150     0.0        0.0        0.0        0.0
C_0411           J_0411_IN        J_0411_OUT       10.00      0.0150     0.0        0.0        0.0        0.0
C_0412           J_0412_IN        J_0412_OUT       313.50     0.0150     0.0        0.0        0.0        0.0
C_0413           J_0413_IN        J_0413_OUT       320.12     0.0150     0.0        0.0        0.0        0.0
C_0414           J_0414_IN        J_0414_OUT       26.14      0.0150     0.0        0.0        0.0        0.0
C_0415           J_0415_IN        J_0415_OUT       309.82     0.0150     0.0        0.0        0.0        0.0
C_0416           J_0416_IN        J_0416_OUT       61.06      0.0150     0.0        0.0        0.0        0.0
C_0417           J_0417_IN        J_0417_OUT       17.86      0.0150     0.0        0.0        0.0        0.0
C_0418           J_0418_IN        J_0418_OUT       319.43     0.0150     0.0        0.0        0.0        0.0
C_0419           J_0419_IN        J_0419_OUT       56.83      0.0150     0.0        0.0        0.0        0.0
C_0420           J_0420_IN        J_0420_OUT       974.56     0.0150     0.0        0.0        0.0        0.0
C_0421           J_0421_IN        J_0421_OUT       10.00      0.0150     0.0        0.0        0.0        0.0
C_0422           J_0422_IN        J_0422_OUT       78.98      0.0150     0.0        0.0        0.0        0.0
C_0423           J_0423_IN        J_0423_OUT       33.59      0.0150     0.0        0.0        0.0        0.0
C_0424           J_0424_IN        J_0424_OUT       498.67     0.0150     0.0        0.0        0.0        0.0
C_0425           J_0425_IN        J_0425_OUT       212.01     0.0150     0.0        0.0        0.0        0.0
C_0426           J_0426_IN        J_0426_OUT       18.21      0.0150     0.0        0.0        0.0        0.0
C_0427           J_0427_IN        J_0427_OUT       259.04     0.0150     0.0        0.0        0.0        0.0
C_0428           J_0428_IN        J_0428_OUT       17.74      0.0150     0.0        0.0        0.0        0.0
C_0429           J_0429_IN        J_0429_OUT       22.35      0.0150     0.0        0.0        0.0        0.0
C_0430           J_0430_IN        J_0430_OUT       326.31     0.0150     0.0        0.0        0.0        0.0
C_0431           J_0431_IN        J_0431_OUT       10.00      0.0150     0.0        0.0        0.0        0.0
C_0432           J_0432_IN        J_0432_OUT       117.68     0.0150     0.0        0.0        0.0        0.0
C_0433           J_0433_IN        J_0433_OUT       13.11      0.0150     0.0        0.0        0.0        0.0
C_0434           J_0434_IN        J_0434_OUT       1047.56    0.0150     0.0        0.0        0.0        0.0
C_0435           J_0435_IN        J_0435_OUT       32.66      0.0150     0.0        0.0        0.0        0.0
C_0436           J_0436_IN        J_0436_OUT       43.35      0.0150     0.0        0.0        0.0        0.0
C_0437           J_0437_IN        J_0437_OUT       27.02      0.0150     0.0        0.0        0.0        0.0
C_0438           J_0438_IN        J_0438_OUT       217.80     0.0150     0.0        0.0        0.0        0.0
C_0439           J_0439_IN        J_0439_OUT       10.34      0.0150     0.0        0.0        0.0        0.0
C_0440           J_0440_IN        J_0440_OUT       136.63     0.0150     0.0        0.0        0.0        0.0
C_0441           J_0441_IN        J_0441_OUT       42.40      0.0150     0.0        0.0        0.0        0.0
C_0442           J_0442_IN        J_0442_OUT       83.18      0.0150     0.0        0.0        0.0        0.0
C_0443           J_0443_IN        J_0443_OUT       3562.94    0.0150     0.0        0.0        0.0        0.0
C_0444           J_0444_IN        J_0444_OUT       59.51      0.0150     0.0        0.0        0.0        0.0
C_0445           J_0445_IN        J_0445_OUT       47.45      0.0150     0.0        0.0        0.0        0.0
C_0446           J_0446_IN        J_0446_OUT       36.38      0.0150     0.0        0.0        0.0        0.0
C_0447           J_0447_IN        J_0447_OUT       1028.58    0.0150     0.0        0.0        0.0        0.0
C_0448           J_0448_IN        J_0448_OUT       32.92      0.0150     0.0        0.0        0.0        0.0
C_0449           J_0449_IN        J_0449_OUT       1535.91    0.0150     0.0        0.0        0.0        0.0
C_0450           J_0450_IN        J_0450_OUT       16.00      0.0150     0.0        0.0        0.0        0.0
C_0451           J_0451_IN        J_0451_OUT       155.84     0.0150     0.0        0.0        0.0        0.0
C_0452           J_0452_IN        J_0452_OUT       93.87      0.0150     0.0        0.0        0.0        0.0
C_0453           J_0453_IN        J_0453_OUT       10.00      0.0150     0.0        0.0        0.0        0.0
C_0454           J_0454_IN        J_0454_OUT       10.00      0.0150     0.0        0.0        0.0        0.0
C_0455           J_0455_IN        J_0455_OUT       80.69      0.0150     0.0        0.0        0.0        0.0
C_0456           J_0456_IN        J_0456_OUT       67.85      0.0150     0.0        0.0        0.0        0.0
C_0457           J_0457_IN        J_0457_OUT       19.10      0.0150     0.0        0.0        0.0        0.0
C_0458           J_0458_IN        J_0458_OUT       694.43     0.0150     0.0        0.0        0.0        0.0
C_0459           J_0459_IN        J_0459_OUT       10.01      0.0150     0.0        0.0        0.0        0.0
C_0460           J_0460_IN        J_0460_OUT       15.79      0.0150     0.0        0.0        0.0        0.0
C_0461           J_0461_IN        J_0461_OUT       159.37     0.0150     0.0        0.0        0.0        0.0
C_0462           J_0462_IN        J_0462_OUT       17.50      0.0150     0.0        0.0        0.0        0.0
C_0463           J_0463_IN        J_0463_OUT       201.08     0.0150     0.0        0.0        0.0        0.0
C_0464           J_0464_IN        J_0464_OUT       425.85     0.0150     0.0        0.0        0.0        0.0
C_0465           J_0465_IN        J_0465_OUT       10.16      0.0150     0.0        0.0        0.0        0.0
C_0466           J_0466_IN        J_0466_OUT       14.97      0.0150     0.0        0.0        0.0        0.0
C_0467           J_0467_IN        J_0467_OUT       10.37      0.0150     0.0        0.0        0.0        0.0
C_0468           J_0468_IN        J_0468_OUT       111.38     0.0150     0.0        0.0        0.0        0.0
C_0469           J_0469_IN        J_0469_OUT       10.08      0.0150     0.0        0.0        0.0        0.0
C_0470           J_0470_IN        J_0470_OUT       118.38     0.0150     0.0        0.0        0.0        0.0
C_0471           J_0471_IN        J_0471_OUT       10.00      0.0150     0.0        0.0        0.0        0.0
C_0472           J_0472_IN        J_0472_OUT       90.47      0.0150     0.0        0.0        0.0        0.0
C_0473           J_0473_IN        J_0473_OUT       87.48      0.0150     0.0        0.0        0.0        0.0
C_0474           J_0474_IN        J_0474_OUT       13.10      0.0150     0.0        0.0        0.0        0.0
C_0475           J_0475_IN        J_0475_OUT       38.63      0.0150     0.0        0.0        0.0        0.0
C_0476           J_0476_IN        J_0476_OUT       143.81     0.0150     0.0        0.0        0.0        0.0
C_0477           J_0477_IN        J_0477_OUT       64.80      0.0150     0.0        0.0        0.0        0.0
C_0478           J_0478_IN        J_0478_OUT       274.72     0.0150     0.0        0.0        0.0        0.0
C_0479           J_0479_IN        J_0479_OUT       15.88      0.0150     0.0        0.0        0.0        0.0
C_0480           J_0480_IN        J_0480_OUT       305.44     0.0150     0.0        0.0        0.0        0.0
C_0481           J_0481_IN        J_0481_OUT       36.36      0.0150     0.0        0.0        0.0        0.0
C_0482           J_0482_IN        J_0482_OUT       1787.87    0.0150     0.0        0.0        0.0        0.0
C_0483           J_0483_IN        J_0483_OUT       18.42      0.0150     0.0        0.0        0.0        0.0
C_0484           J_0484_IN        J_0484_OUT       154.09     0.0150     0.0        0.0        0.0        0.0
C_0485           J_0485_IN        J_0485_OUT       10.00      0.0150     0.0        0.0        0.0        0.0
C_0486           J_0486_IN        J_0486_OUT       98.78      0.0150     0.0        0.0        0.0        0.0
C_0487           J_0487_IN        J_0487_OUT       366.19     0.0150     0.0        0.0        0.0        0.0
C_0488           J_0488_IN        J_0488_OUT       29.80      0.0150     0.0        0.0        0.0        0.0
C_0489           J_0489_IN        J_0489_OUT       281.66     0.0150     0.0        0.0        0.0        0.0
C_0490           J_0490_IN        J_0490_OUT       56.33      0.0150     0.0        0.0        0.0        0.0
C_0491           J_0491_IN        J_0491_OUT       16.60      0.0150     0.0        0.0        0.0        0.0
C_0492           J_0492_IN        J_0492_OUT       480.24     0.0150     0.0        0.0        0.0        0.0
C_0493           J_0493_IN        J_0493_OUT       18.71      0.0150     0.0        0.0        0.0        0.0
C_0494           J_0494_IN        J_0494_OUT       99.66      0.0150     0.0        0.0        0.0        0.0
C_0495           J_0495_IN        J_0495_OUT       15.15      0.0150     0.0        0.0        0.0        0.0
C_0496           J_0496_IN        J_0496_OUT       328.28     0.0150     0.0        0.0        0.0        0.0
C_0497           J_0497_IN        J_0497_OUT       14.61      0.0150     0.0        0.0        0.0        0.0
C_0498           J_0498_IN        J_0498_OUT       29.96      0.0150     0.0        0.0        0.0        0.0
C_0499           J_0499_IN        J_0499_OUT       38.86      0.0150     0.0        0.0        0.0        0.0
C_0500           J_0500_IN        J_0500_OUT       727.05     0.0150     0.0        0.0        0.0        0.0
C_0501           J_0501_IN        J_0501_OUT       31.78      0.0150     0.0        0.0        0.0        0.0
C_0502           J_0502_IN        J_0502_OUT       680.23     0.0150     0.0        0.0        0.0        0.0
C_0503           J_0503_IN        J_0503_OUT       10.00      0.0150     0.0        0.0        0.0        0.0
C_0504           J_0504_IN        J_0504_OUT       45.20      0.0150     0.0        0.0        0.0        0.0
C_0505           J_0505_IN        J_0505_OUT       708.25     0.0150     0.0        0.0        0.0        0.0
C_0506           J_0506_IN        J_0506_OUT       10.00      0.0150     0.0        0.0        0.0        0.0
C_0507           J_0507_IN        J_0507_OUT       44.33      0.0150     0.0        0.0        0.0        0.0
C_0508           J_0508_IN        J_0508_OUT       10.20      0.0150     0.0        0.0        0.0        0.0
C_0509           J_0509_IN        J_0509_OUT       1029.71    0.0150     0.0        0.0        0.0        0.0
C_0510           J_0510_IN        J_0510_OUT       10.00      0.0150     0.0        0.0        0.0        0.0
C_0511           J_0511_IN        J_0511_OUT       25.16      0.0150     0.0        0.0        0.0        0.0
C_0512           J_0512_IN        J_0512_OUT       275.53     0.0150     0.0        0.0        0.0        0.0
C_0513           J_0513_IN        J_0513_OUT       10.00      0.0150     0.0        0.0        0.0        0.0
C_0514           J_0514_IN        J_0514_OUT       1014.50    0.0150     0.0        0.0        0.0        0.0
C_0515           J_0515_IN        J_0515_OUT       16.25      0.0150     0.0        0.0        0.0        0.0
C_0516           J_0516_IN        J_0516_OUT       10.00      0.0150     0.0        0.0        0.0        0.0
C_0517           J_0517_IN        J_0517_OUT       10.00      0.0150     0.0        0.0        0.0        0.0
C_0518           J_0518_IN        J_0518_OUT       10.00      0.0150     0.0        0.0        0.0        0.0
C_0519           J_0519_IN        J_0519_OUT       11.93      0.0150     0.0        0.0        0.0        0.0
C_0520           J_0520_IN        J_0520_OUT       653.18     0.0150     0.0        0.0        0.0        0.0
C_0521           J_0521_IN        J_0521_OUT       1781.15    0.0150     0.0        0.0        0.0        0.0
C_0522           J_0522_IN        J_0522_OUT       1061.89    0.0150     0.0        0.0        0.0        0.0
C_0523           J_0523_IN        J_0523_OUT       777.04     0.0150     0.0        0.0        0.0        0.0
C_0524           J_0524_IN        J_0524_OUT       909.93     0.0150     0.0        0.0        0.0        0.0
C_0525           J_0525_IN        J_0525_OUT       6719.10    0.0150     0.0        0.0        0.0        0.0
C_0526           J_0526_IN        J_0526_OUT       1196.39    0.0150     0.0        0.0        0.0        0.0
C_0527           J_0527_IN        J_0527_OUT       2239.35    0.0150     0.0        0.0        0.0        0.0
C_0528           J_0528_IN        J_0528_OUT       878.94     0.0150     0.0        0.0        0.0        0.0
C_0529           J_0529_IN        J_0529_OUT       3970.24    0.0150     0.0        0.0        0.0        0.0
C_0530           J_0530_IN        J_0530_OUT       111.68     0.0150     0.0        0.0        0.0        0.0
C_0531           J_0531_IN        J_0531_OUT       2513.48    0.0150     0.0        0.0        0.0        0.0
C_0532           J_0532_IN        J_0532_OUT       95.35      0.0150     0.0        0.0        0.0        0.0
C_0533           J_0533_IN        J_0533_OUT       256.97     0.0150     0.0        0.0        0.0        0.0
C_0534           J_0534_IN        J_0534_OUT       10.69      0.0150     0.0        0.0        0.0        0.0
C_0535           J_0535_IN        J_0535_OUT       564.83     0.0150     0.0        0.0        0.0        0.0
C_0536           J_0536_IN        J_0536_OUT       10.00      0.0150     0.0        0.0        0.0        0.0
C_0537           J_0537_IN        J_0537_OUT       722.74     0.0150     0.0        0.0        0.0        0.0
C_0538           J_0538_IN        J_0538_OUT       10.00      0.0150     0.0        0.0        0.0        0.0
C_0539           J_0539_IN        J_0539_OUT       10.00      0.0150     0.0        0.0        0.0        0.0
C_0540           J_0540_IN        J_0540_OUT       10.00      0.0150     0.0        0.0        0.0        0.0
C_0541           J_0541_IN        J_0541_OUT       212.22     0.0150     0.0        0.0        0.0        0.0
C_0542           J_0542_IN        J_0542_OUT       11.03      0.0150     0.0        0.0        0.0        0.0
C_0543           J_0543_IN        J_0543_OUT       163.35     0.0150     0.0        0.0        0.0        0.0
C_0544           J_0544_IN        J_0544_OUT       25.82      0.0150     0.0        0.0        0.0        0.0
C_0545           J_0545_IN        J_0545_OUT       456.80     0.0150     0.0        0.0        0.0        0.0
C_0546           J_0546_IN        J_0546_OUT       25.81      0.0150     0.0        0.0        0.0        0.0
C_0547           J_0547_IN        J_0547_OUT       277.10     0.0150     0.0        0.0        0.0        0.0
C_0548           J_0548_IN        J_0548_OUT       10.19      0.0150     0.0        0.0        0.0        0.0
C_0549           J_0549_IN        J_0549_OUT       151.96     0.0150     0.0        0.0        0.0        0.0
C_0550           J_0550_IN        J_0550_OUT       162.13     0.0150     0.0        0.0        0.0        0.0
C_0551           J_0551_IN        J_0551_OUT       75.54      0.0150     0.0        0.0        0.0        0.0
C_0552           J_0552_IN        J_0552_OUT       1137.81    0.0150     0.0        0.0        0.0        0.0
C_0553           J_0553_IN        J_0553_OUT       219.59     0.0150     0.0        0.0        0.0        0.0
C_0554           J_0554_IN        J_0554_OUT       557.52     0.0150     0.0        0.0        0.0        0.0
C_0555           J_0555_IN        J_0555_OUT       512.46     0.0150     0.0        0.0        0.0        0.0
C_0556           J_0556_IN        J_0556_OUT       80.10      0.0150     0.0        0.0        0.0        0.0
C_0557           J_0557_IN        J_0557_OUT       191.21     0.0150     0.0        0.0        0.0        0.0
C_0558           J_0558_IN        J_0558_OUT       143.55     0.0150     0.0        0.0        0.0        0.0
C_0559           J_0559_IN        J_0559_OUT       1475.38    0.0150     0.0        0.0        0.0        0.0
C_0560           J_0560_IN        J_0560_OUT       415.62     0.0150     0.0        0.0        0.0        0.0
C_0561           J_0561_IN        J_0561_OUT       210.60     0.0150     0.0        0.0        0.0        0.0
C_0562           J_0562_IN        J_0562_OUT       69.99      0.0150     0.0        0.0        0.0        0.0
C_0563           J_0563_IN        J_0563_OUT       10784.23   0.0150     0.0        0.0        0.0        0.0
C_0564           J_0564_IN        J_0564_OUT       165.45     0.0150     0.0        0.0        0.0        0.0
C_0565           J_0565_IN        J_0565_OUT       41.22      0.0150     0.0        0.0        0.0        0.0
C_0566           J_0566_IN        J_0566_OUT       94.18      0.0150     0.0        0.0        0.0        0.0
C_0567           J_0567_IN        J_0567_OUT       39.79      0.0150     0.0        0.0        0.0        0.0
C_0568           J_0568_IN        J_0568_OUT       833.17     0.0150     0.0        0.0        0.0        0.0
C_0569           J_0569_IN        J_0569_OUT       310.36     0.0150     0.0        0.0        0.0        0.0
C_0570           J_0570_IN        J_0570_OUT       487.66     0.0150     0.0        0.0        0.0        0.0
C_0571           J_0571_IN        J_0571_OUT       1677.91    0.0150     0.0        0.0        0.0        0.0
C_0572           J_0572_IN        J_0572_OUT       384.52     0.0150     0.0        0.0        0.0        0.0
C_0573           J_0573_IN        J_0573_OUT       312.53     0.0150     0.0        0.0        0.0        0.0
C_0574           J_0574_IN        J_0574_OUT       569.06     0.0150     0.0        0.0        0.0        0.0
C_0575           J_0575_IN        J_0575_OUT       920.91     0.0150     0.0        0.0        0.0        0.0
C_0576           J_0576_IN        J_0576_OUT       1152.34    0.0150     0.0        0.0        0.0        0.0
C_0577           J_0577_IN        J_0577_OUT       458.71     0.0150     0.0        0.0        0.0        0.0
C_0578           J_0578_IN        J_0578_OUT       145.17     0.0150     0.0        0.0        0.0        0.0
C_0579           J_0579_IN        J_0579_OUT       868.44     0.0150     0.0        0.0        0.0        0.0
C_0580           J_0580_IN        J_0580_OUT       842.24     0.0150     0.0        0.0        0.0        0.0
C_0581           J_0581_IN        J_0581_OUT       281.16     0.0150     0.0        0.0        0.0        0.0
C_0582           J_0582_IN        J_0582_OUT       505.94     0.0150     0.0        0.0        0.0        0.0
C_0583           J_0583_IN        J_0583_OUT       39.07      0.0150     0.0        0.0        0.0        0.0
C_0584           J_0584_IN        J_0584_OUT       155.51     0.0150     0.0        0.0        0.0        0.0
C_0585           J_0585_IN        J_0585_OUT       215.93     0.0150     0.0        0.0        0.0        0.0
C_0586           J_0586_IN        J_0586_OUT       181.38     0.0150     0.0        0.0        0.0        0.0
C_0587           J_0587_IN        J_0587_OUT       436.81     0.0150     0.0        0.0        0.0        0.0
C_0588           J_0588_IN        J_0588_OUT       25.08      0.0150     0.0        0.0        0.0        0.0
C_0589           J_0589_IN        J_0589_OUT       231.21     0.0150     0.0        0.0        0.0        0.0
C_0590           J_0590_IN        J_0590_OUT       67.09      0.0150     0.0        0.0        0.0        0.0
C_0591           J_0591_IN        J_0591_OUT       406.19     0.0150     0.0        0.0        0.0        0.0
C_0592           J_0592_IN        J_0592_OUT       226.61     0.0150     0.0        0.0        0.0        0.0
C_0593           J_0593_IN        J_0593_OUT       400.17     0.0150     0.0        0.0        0.0        0.0
C_0594           J_0594_IN        J_0594_OUT       297.47     0.0150     0.0        0.0        0.0        0.0
C_0595           J_0595_IN        J_0595_OUT       99.53      0.0150     0.0        0.0        0.0        0.0
C_0596           J_0596_IN        J_0596_OUT       85.50      0.0150     0.0        0.0        0.0        0.0
C_0597           J_0597_IN        J_0597_OUT       12.12      0.0150     0.0        0.0        0.0        0.0
C_0598           J_0598_IN        J_0598_OUT       98.78      0.0150     0.0        0.0        0.0        0.0
C_0599           J_0599_IN        J_0599_OUT       151.22     0.0150     0.0        0.0        0.0        0.0
C_0600           J_0600_IN        J_0600_OUT       299.47     0.0150     0.0        0.0        0.0        0.0
C_0601           J_0601_IN        J_0601_OUT       128.05     0.0150     0.0        0.0        0.0        0.0
C_0602           J_0602_IN        J_0602_OUT       90.30      0.0150     0.0        0.0        0.0        0.0
C_0603           J_0603_IN        J_0603_OUT       48.98      0.0150     0.0        0.0        0.0        0.0
C_0604           J_0604_IN        J_0604_OUT       477.97     0.0150     0.0        0.0        0.0        0.0
C_0605           J_0605_IN        J_0605_OUT       100.67     0.0150     0.0        0.0        0.0        0.0
C_0606           J_0606_IN        J_0606_OUT       408.02     0.0150     0.0        0.0        0.0        0.0
C_0607           J_0607_IN        J_0607_OUT       117.59     0.0150     0.0        0.0        0.0        0.0
C_0608           J_0608_IN        J_0608_OUT       207.35     0.0150     0.0        0.0        0.0        0.0
C_0609           J_0609_IN        J_0609_OUT       41.82      0.0150     0.0        0.0        0.0        0.0
C_0610           J_0610_IN        J_0610_OUT       25.17      0.0150     0.0        0.0        0.0        0.0
C_0611           J_0611_IN        J_0611_OUT       145.78     0.0150     0.0        0.0        0.0        0.0
C_0612           J_0612_IN        J_0612_OUT       10.00      0.0150     0.0        0.0        0.0        0.0
C_0613           J_0613_IN        J_0613_OUT       53.42      0.0150     0.0        0.0        0.0        0.0
C_0614           J_0614_IN        J_0614_OUT       10.00      0.0150     0.0        0.0        0.0        0.0
C_0615           J_0615_IN        J_0615_OUT       368.04     0.0150     0.0        0.0        0.0        0.0
C_0616           J_0616_IN        J_0616_OUT       10.00      0.0150     0.0        0.0        0.0        0.0
C_0617           J_0617_IN        J_0617_OUT       324.08     0.0150     0.0        0.0        0.0        0.0
C_0618           J_0618_IN        J_0618_OUT       33.18      0.0150     0.0        0.0        0.0        0.0
C_0619           J_0619_IN        J_0619_OUT       368.06     0.0150     0.0        0.0        0.0        0.0
C_0620           J_0620_IN        J_0620_OUT       866.45     0.0150     0.0        0.0        0.0        0.0
C_0621           J_0621_IN        J_0621_OUT       290.27     0.0150     0.0        0.0        0.0        0.0
C_0622           J_0622_IN        J_0622_OUT       358.12     0.0150     0.0        0.0        0.0        0.0
C_0623           J_0623_IN        J_0623_OUT       21.48      0.0150     0.0        0.0        0.0        0.0
C_0624           J_0624_IN        J_0624_OUT       14.29      0.0150     0.0        0.0        0.0        0.0
C_0625           J_0625_IN        J_0625_OUT       48.93      0.0150     0.0        0.0        0.0        0.0
C_0626           J_0626_IN        J_0626_OUT       162.42     0.0150     0.0        0.0        0.0        0.0
C_0627           J_0627_IN        J_0627_OUT       15.61      0.0150     0.0        0.0        0.0        0.0
C_0628           J_0628_IN        J_0628_OUT       133.91     0.0150     0.0        0.0        0.0        0.0
C_0629           J_0629_IN        J_0629_OUT       116.14     0.0150     0.0        0.0        0.0        0.0
C_0630           J_0630_IN        J_0630_OUT       166.87     0.0150     0.0        0.0        0.0        0.0
C_0631           J_0631_IN        J_0631_OUT       14.38      0.0150     0.0        0.0        0.0        0.0
C_0632           J_0632_IN        J_0632_OUT       296.75     0.0150     0.0        0.0        0.0        0.0
C_0633           J_0633_IN        J_0633_OUT       251.04     0.0150     0.0        0.0        0.0        0.0
C_0634           J_0634_IN        J_0634_OUT       23.69      0.0150     0.0        0.0        0.0        0.0
C_0635           J_0635_IN        J_0635_OUT       58.15      0.0150     0.0        0.0        0.0        0.0
C_0636           J_0636_IN        J_0636_OUT       260.21     0.0150     0.0        0.0        0.0        0.0
C_0637           J_0637_IN        J_0637_OUT       237.57     0.0150     0.0        0.0        0.0        0.0
C_0638           J_0638_IN        J_0638_OUT       11.94      0.0150     0.0        0.0        0.0        0.0
C_0639           J_0639_IN        J_0639_OUT       118.02     0.0150     0.0        0.0        0.0        0.0
C_0640           J_0640_IN        J_0640_OUT       10.94      0.0150     0.0        0.0        0.0        0.0
C_0641           J_0641_IN        J_0641_OUT       273.00     0.0150     0.0        0.0        0.0        0.0
C_0642           J_0642_IN        J_0642_OUT       10.00      0.0150     0.0        0.0        0.0        0.0
C_0643           J_0643_IN        J_0643_OUT       23.33      0.0150     0.0        0.0        0.0        0.0
C_0644           J_0644_IN        J_0644_OUT       10.00      0.0150     0.0        0.0        0.0        0.0
C_0645           J_0645_IN        J_0645_OUT       129.50     0.0150     0.0        0.0        0.0        0.0
C_0646           J_0646_IN        J_0646_OUT       10.00      0.0150     0.0        0.0        0.0        0.0
C_0647           J_0647_IN        J_0647_OUT       322.56     0.0150     0.0        0.0        0.0        0.0
C_0648           J_0648_IN        J_0648_OUT       10.00      0.0150     0.0        0.0        0.0        0.0
C_0649           J_0649_IN        J_0649_OUT       10.00      0.0150     0.0        0.0        0.0        0.0
C_0650           J_0650_IN        J_0650_OUT       10.00      0.0150     0.0        0.0        0.0        0.0
C_0651           J_0651_IN        J_0651_OUT       10.00      0.0150     0.0        0.0        0.0        0.0
C_0652           J_0652_IN        J_0652_OUT       272.73     0.0150     0.0        0.0        0.0        0.0
C_0653           J_0653_IN        J_0653_OUT       150.74     0.0150     0.0        0.0        0.0        0.0
C_0654           J_0654_IN        J_0654_OUT       20.27      0.0150     0.0        0.0        0.0        0.0
C_0655           J_0655_IN        J_0655_OUT       2855.03    0.0150     0.0        0.0        0.0        0.0
C_0656           J_0656_IN        J_0656_OUT       4903.39    0.0150     0.0        0.0        0.0        0.0
C_0657           J_0657_IN        J_0657_OUT       469.79     0.0150     0.0        0.0        0.0        0.0
C_0658           J_0658_IN        J_0658_OUT       532.85     0.0150     0.0        0.0        0.0        0.0
C_0659           J_0659_IN        J_0659_OUT       77.09      0.0150     0.0        0.0        0.0        0.0
C_0660           J_0660_IN        J_0660_OUT       245.97     0.0150     0.0        0.0        0.0        0.0
C_0661           J_0661_IN        J_0661_OUT       139.48     0.0150     0.0        0.0        0.0        0.0
C_0662           J_0662_IN        J_0662_OUT       28.76      0.0150     0.0        0.0        0.0        0.0
C_0663           J_0663_IN        J_0663_OUT       417.14     0.0150     0.0        0.0        0.0        0.0
C_0664           J_0664_IN        J_0664_OUT       72.14      0.0150     0.0        0.0        0.0        0.0
C_0665           J_0665_IN        J_0665_OUT       548.24     0.0150     0.0        0.0        0.0        0.0
C_0666           J_0666_IN        J_0666_OUT       79.64      0.0150     0.0        0.0        0.0        0.0
C_0667           J_0667_IN        J_0667_OUT       112.91     0.0150     0.0        0.0        0.0        0.0
C_0668           J_0668_IN        J_0668_OUT       18.21      0.0150     0.0        0.0        0.0        0.0
C_0669           J_0669_IN        J_0669_OUT       48.49      0.0150     0.0        0.0        0.0        0.0
C_0670           J_0670_IN        J_0670_OUT       214.42     0.0150     0.0        0.0        0.0        0.0
C_0671           J_0671_IN        J_0671_OUT       23.72      0.0150     0.0        0.0        0.0        0.0
C_0672           J_0672_IN        J_0672_OUT       573.32     0.0150     0.0        0.0        0.0        0.0
C_0673           J_0673_IN        J_0673_OUT       1122.03    0.0150     0.0        0.0        0.0        0.0
C_0674           J_0674_IN        J_0674_OUT       135.66     0.0150     0.0        0.0        0.0        0.0
C_0675           J_0675_IN        J_0675_OUT       210.62     0.0150     0.0        0.0        0.0        0.0
C_0676           J_0676_IN        J_0676_OUT       461.84     0.0150     0.0        0.0        0.0        0.0
C_0677           J_0677_IN        J_0677_OUT       23.87      0.0150     0.0        0.0        0.0        0.0
C_0678           J_0678_IN        J_0678_OUT       224.45     0.0150     0.0        0.0        0.0        0.0
C_0679           J_0679_IN        J_0679_OUT       383.24     0.0150     0.0        0.0        0.0        0.0
C_0680           J_0680_IN        J_0680_OUT       12.19      0.0150     0.0        0.0        0.0        0.0
C_0681           J_0681_IN        J_0681_OUT       10.00      0.0150     0.0        0.0        0.0        0.0
C_0682           J_0682_IN        J_0682_OUT       269.63     0.0150     0.0        0.0        0.0        0.0
C_0683           J_0683_IN        J_0683_OUT       15.26      0.0150     0.0        0.0        0.0        0.0
C_0684           J_0684_IN        J_0684_OUT       89.69      0.0150     0.0        0.0        0.0        0.0
C_0685           J_0685_IN        J_0685_OUT       10.00      0.0150     0.0        0.0        0.0        0.0
C_0686           J_0686_IN        J_0686_OUT       73.42      0.0150     0.0        0.0        0.0        0.0
C_0687           J_0687_IN        J_0687_OUT       16.06      0.0150     0.0        0.0        0.0        0.0
C_0688           J_0688_IN        J_0688_OUT       257.83     0.0150     0.0        0.0        0.0        0.0
C_0689           J_0689_IN        J_0689_OUT       11.21      0.0150     0.0        0.0        0.0        0.0
C_0690           J_0690_IN        J_0690_OUT       889.05     0.0150     0.0        0.0        0.0        0.0
C_0691           J_0691_IN        J_0691_OUT       10.00      0.0150     0.0        0.0        0.0        0.0
C_0692           J_0692_IN        J_0692_OUT       375.48     0.0150     0.0        0.0        0.0        0.0
C_0693           J_0693_IN        J_0693_OUT       146.52     0.0150     0.0        0.0        0.0        0.0
C_0694           J_0694_IN        J_0694_OUT       12.91      0.0150     0.0        0.0        0.0        0.0
C_0695           J_0695_IN        J_0695_OUT       35.28      0.0150     0.0        0.0        0.0        0.0
C_0696           J_0696_IN        J_0696_OUT       223.02     0.0150     0.0        0.0        0.0        0.0
C_0697           J_0697_IN        J_0697_OUT       12.01      0.0150     0.0        0.0        0.0        0.0
C_0698           J_0698_IN        J_0698_OUT       84.40      0.0150     0.0        0.0        0.0        0.0
C_0699           J_0699_IN        J_0699_OUT       10.00      0.0150     0.0        0.0        0.0        0.0
C_0700           J_0700_IN        J_0700_OUT       107.73     0.0150     0.0        0.0        0.0        0.0
C_0701           J_0701_IN        J_0701_OUT       11.71      0.0150     0.0        0.0        0.0        0.0
C_0702           J_0702_IN        J_0702_OUT       134.07     0.0150     0.0        0.0        0.0        0.0
C_0703           J_0703_IN        J_0703_OUT       10.00      0.0150     0.0        0.0        0.0        0.0
C_0704           J_0704_IN        J_0704_OUT       117.52     0.0150     0.0        0.0        0.0        0.0
C_0705           J_0705_IN        J_0705_OUT       48.22      0.0150     0.0        0.0        0.0        0.0
C_0706           J_0706_IN        J_0706_OUT       303.17     0.0150     0.0        0.0        0.0        0.0
C_0707           J_0707_IN        J_0707_OUT       430.03     0.0150     0.0        0.0        0.0        0.0
C_0708           J_0708_IN        J_0708_OUT       321.35     0.0150     0.0        0.0        0.0        0.0
C_0709           J_0709_IN        J_0709_OUT       162.63     0.0150     0.0        0.0        0.0        0.0
C_0710           J_0710_IN        J_0710_OUT       354.72     0.0150     0.0        0.0        0.0        0.0
C_0711           J_0711_IN        J_0711_OUT       10.00      0.0150     0.0        0.0        0.0        0.0
C_0712           J_0712_IN        J_0712_OUT       317.71     0.0150     0.0        0.0        0.0        0.0
C_0713           J_0713_IN        J_0713_OUT       10.12      0.0150     0.0        0.0        0.0        0.0
C_0714           J_0714_IN        J_0714_OUT       799.46     0.0150     0.0        0.0        0.0        0.0
C_0715           J_0715_IN        J_0715_OUT       653.66     0.0150     0.0        0.0        0.0        0.0
C_0716           J_0716_IN        J_0716_OUT       823.48     0.0150     0.0        0.0        0.0        0.0
C_0717           J_0717_IN        J_0717_OUT       444.98     0.0150     0.0        0.0        0.0        0.0
C_0718           J_0718_IN        J_0718_OUT       922.65     0.0150     0.0        0.0        0.0        0.0
C_0719           J_0719_IN        J_0719_OUT       580.19     0.0150     0.0        0.0        0.0        0.0
C_0720           J_0720_IN        J_0720_OUT       990.80     0.0150     0.0        0.0        0.0        0.0
C_0721           J_0721_IN        J_0721_OUT       371.42     0.0150     0.0        0.0        0.0        0.0
C_0722           J_0722_IN        J_0722_OUT       1181.95    0.0150     0.0        0.0        0.0        0.0
C_0723           J_0723_IN        J_0723_OUT       287.60     0.0150     0.0        0.0        0.0        0.0
C_0724           J_0724_IN        J_0724_OUT       3140.11    0.0150     0.0        0.0        0.0        0.0
C_0725           J_0725_IN        J_0725_OUT       268.65     0.0150     0.0        0.0        0.0        0.0
C_0726           J_0726_IN        J_0726_OUT       321.99     0.0150     0.0        0.0        0.0        0.0
C_0727           J_0727_IN        J_0727_OUT       211.85     0.0150     0.0        0.0        0.0        0.0
C_0728           J_0728_IN        J_0728_OUT       116.67     0.0150     0.0        0.0        0.0        0.0
C_0729           J_0729_IN        J_0729_OUT       10.84      0.0150     0.0        0.0        0.0        0.0
C_0730           J_0730_IN        J_0730_OUT       315.41     0.0150     0.0        0.0        0.0        0.0
C_0731           J_0731_IN        J_0731_OUT       39.94      0.0150     0.0        0.0        0.0        0.0
C_0732           J_0732_IN        J_0732_OUT       606.34     0.0150     0.0        0.0        0.0        0.0
C_0733           J_0733_IN        J_0733_OUT       28.19      0.0150     0.0        0.0        0.0        0.0
C_0734           J_0734_IN        J_0734_OUT       30.61      0.0150     0.0        0.0        0.0        0.0
C_0735           J_0735_IN        J_0735_OUT       34.64      0.0150     0.0        0.0        0.0        0.0
C_0736           J_0736_IN        J_0736_OUT       86.70      0.0150     0.0        0.0        0.0        0.0
C_0737           J_0737_IN        J_0737_OUT       71.71      0.0150     0.0        0.0        0.0        0.0
C_0738           J_0738_IN        J_0738_OUT       289.49     0.0150     0.0        0.0        0.0        0.0
C_0739           J_0739_IN        J_0739_OUT       182.18     0.0150     0.0        0.0        0.0        0.0
C_0740           J_0740_IN        J_0740_OUT       167.28     0.0150     0.0        0.0        0.0        0.0
C_0741           J_0741_IN        J_0741_OUT       231.01     0.0150     0.0        0.0        0.0        0.0
C_0742           J_0742_IN        J_0742_OUT       179.15     0.0150     0.0        0.0        0.0        0.0
C_0743           J_0743_IN        J_0743_OUT       170.67     0.0150     0.0        0.0        0.0        0.0
C_0744           J_0744_IN        J_0744_OUT       164.97     0.0150     0.0        0.0        0.0        0.0
C_0745           J_0745_IN        J_0745_OUT       80.06      0.0150     0.0        0.0        0.0        0.0
C_0746           J_0746_IN        J_0746_OUT       48.79      0.0150     0.0        0.0        0.0        0.0
C_0747           J_0747_IN        J_0747_OUT       115.46     0.0150     0.0        0.0        0.0        0.0
C_0748           J_0748_IN        J_0748_OUT       62.55      0.0150     0.0        0.0        0.0        0.0
C_0749           J_0749_IN        J_0749_OUT       74.12      0.0150     0.0        0.0        0.0        0.0
C_0750           J_0750_IN        J_0750_OUT       60.33      0.0150     0.0        0.0        0.0        0.0
C_0751           J_0751_IN        J_0751_OUT       112.45     0.0150     0.0        0.0        0.0        0.0
C_0752           J_0752_IN        J_0752_OUT       69.55      0.0150     0.0        0.0        0.0        0.0
C_0753           J_0753_IN        J_0753_OUT       123.22     0.0150     0.0        0.0        0.0        0.0
C_0754           J_0754_IN        J_0754_OUT       141.55     0.0150     0.0        0.0        0.0        0.0
C_0755           J_0755_IN        J_0755_OUT       266.78     0.0150     0.0        0.0        0.0        0.0
C_0756           J_0756_IN        J_0756_OUT       126.08     0.0150     0.0        0.0        0.0        0.0
C_0757           J_0757_IN        J_0757_OUT       44.72      0.0150     0.0        0.0        0.0        0.0
C_0758           J_0758_IN        J_0758_OUT       115.28     0.0150     0.0        0.0        0.0        0.0
C_0759           J_0759_IN        J_0759_OUT       1236.96    0.0150     0.0        0.0        0.0        0.0
C_0760           J_0760_IN        J_0760_OUT       58.64      0.0150     0.0        0.0        0.0        0.0
C_0761           J_0761_IN        J_0761_OUT       253.06     0.0150     0.0        0.0        0.0        0.0
C_0762           J_0762_IN        J_0762_OUT       64.48      0.0150     0.0        0.0        0.0        0.0
C_0763           J_0763_IN        J_0763_OUT       76.95      0.0150     0.0        0.0        0.0        0.0
C_0764           J_0764_IN        J_0764_OUT       42.36      0.0150     0.0        0.0        0.0        0.0
C_0765           J_0765_IN        J_0765_OUT       14.90      0.0150     0.0        0.0        0.0        0.0
C_0766           J_0766_IN        J_0766_OUT       2061.23    0.0150     0.0        0.0        0.0        0.0
C_0767           J_0767_IN        J_0767_OUT       798.86     0.0150     0.0        0.0        0.0        0.0
C_0768           J_0768_IN        J_0768_OUT       3471.99    0.0150     0.0        0.0        0.0        0.0
C_0769           J_0769_IN        J_0769_OUT       1402.95    0.0150     0.0        0.0        0.0        0.0
C_0770           J_0770_IN        J_0770_OUT       1224.63    0.0150     0.0        0.0        0.0        0.0
C_0771           J_0771_IN        J_0771_OUT       1489.97    0.0150     0.0        0.0        0.0        0.0
C_0772           J_0772_IN        J_0772_OUT       1244.41    0.0150     0.0        0.0        0.0        0.0
C_0773           J_0773_IN        J_0773_OUT       1157.78    0.0150     0.0        0.0        0.0        0.0
C_0774           J_0774_IN        J_0774_OUT       1951.32    0.0150     0.0        0.0        0.0        0.0
C_0775           J_0775_IN        J_0775_OUT       134.74     0.0150     0.0        0.0        0.0        0.0
C_0776           J_0776_IN        J_0776_OUT       11.32      0.0150     0.0        0.0        0.0        0.0
C_0777           J_0777_IN        J_0777_OUT       78.98      0.0150     0.0        0.0        0.0        0.0
C_0778           J_0778_IN        J_0778_OUT       12.64      0.0150     0.0        0.0        0.0        0.0
C_0779           J_0779_IN        J_0779_OUT       348.63     0.0150     0.0        0.0        0.0        0.0
C_0780           J_0780_IN        J_0780_OUT       369.92     0.0150     0.0        0.0        0.0        0.0
C_0781           J_0781_IN        J_0781_OUT       53.99      0.0150     0.0        0.0        0.0        0.0
C_0782           J_0782_IN        J_0782_OUT       58.52      0.0150     0.0        0.0        0.0        0.0
C_0783           J_0783_IN        J_0783_OUT       29.70      0.0150     0.0        0.0        0.0        0.0
C_0784           J_0784_IN        J_0784_OUT       91.27      0.0150     0.0        0.0        0.0        0.0
C_0785           J_0785_IN        J_0785_OUT       13.87      0.0150     0.0        0.0        0.0        0.0
C_0786           J_0786_IN        J_0786_OUT       171.66     0.0150     0.0        0.0        0.0        0.0
C_0787           J_0787_IN        J_0787_OUT       163.68     0.0150     0.0        0.0        0.0        0.0
C_0788           J_0788_IN        J_0788_OUT       187.82     0.0150     0.0        0.0        0.0        0.0
C_0789           J_0789_IN        J_0789_OUT       73.02      0.0150     0.0        0.0        0.0        0.0
C_0790           J_0790_IN        J_0790_OUT       10.00      0.0150     0.0        0.0        0.0        0.0
C_0791           J_0791_IN        J_0791_OUT       10.54      0.0150     0.0        0.0        0.0        0.0
C_0792           J_0792_IN        J_0792_OUT       26.85      0.0150     0.0        0.0        0.0        0.0
C_0793           J_0793_IN        J_0793_OUT       10.98      0.0150     0.0        0.0        0.0        0.0
C_0794           J_0794_IN        J_0794_OUT       81.66      0.0150     0.0        0.0        0.0        0.0
C_0795           J_0795_IN        J_0795_OUT       10.00      0.0150     0.0        0.0        0.0        0.0
C_0796           J_0796_IN        J_0796_OUT       10.00      0.0150     0.0        0.0        0.0        0.0
C_0797           J_0797_IN        J_0797_OUT       10.00      0.0150     0.0        0.0        0.0        0.0
C_0798           J_0798_IN        J_0798_OUT       10.00      0.0150     0.0        0.0        0.0        0.0
C_0799           J_0799_IN        J_0799_OUT       10.00      0.0150     0.0        0.0        0.0        0.0
C_0800           J_0800_IN        J_0800_OUT       10.00      0.0150     0.0        0.0        0.0        0.0
C_0801           J_0801_IN        J_0801_OUT       10.00      0.0150     0.0        0.0        0.0        0.0
C_0802           J_0802_IN        J_0802_OUT       10.00      0.0150     0.0        0.0        0.0        0.0
C_0803           J_0803_IN        J_0803_OUT       66.95      0.0150     0.0        0.0        0.0        0.0
C_0804           J_0804_IN        J_0804_OUT       158.36     0.0150     0.0        0.0        0.0        0.0
C_0805           J_0805_IN        J_0805_OUT       23.92      0.0150     0.0        0.0        0.0        0.0
C_0806           J_0806_IN        J_0806_OUT       11.01      0.0150     0.0        0.0        0.0        0.0
C_0807           J_0807_IN        J_0807_OUT       35.13      0.0150     0.0        0.0        0.0        0.0
C_0808           J_0808_IN        J_0808_OUT       17.44      0.0150     0.0        0.0        0.0        0.0
C_0809           J_0809_IN        J_0809_OUT       50.02      0.0150     0.0        0.0        0.0        0.0
C_0810           J_0810_IN        J_0810_OUT       22.03      0.0150     0.0        0.0        0.0        0.0
C_0811           J_0811_IN        J_0811_OUT       84.12      0.0150     0.0        0.0        0.0        0.0
C_0812           J_0812_IN        J_0812_OUT       35.55      0.0150     0.0        0.0        0.0        0.0
C_0813           J_0813_IN        J_0813_OUT       60.22      0.0150     0.0        0.0        0.0        0.0
C_0814           J_0814_IN        J_0814_OUT       49.37      0.0150     0.0        0.0        0.0        0.0
C_0815           J_0815_IN        J_0815_OUT       173.91     0.0150     0.0        0.0        0.0        0.0
C_0816           J_0816_IN        J_0816_OUT       172.40     0.0150     0.0        0.0        0.0        0.0
C_0817           J_0817_IN        J_0817_OUT       113.46     0.0150     0.0        0.0        0.0        0.0
C_0818           J_0818_IN        J_0818_OUT       37.04      0.0150     0.0        0.0        0.0        0.0
C_0819           J_0819_IN        J_0819_OUT       174.91     0.0150     0.0        0.0        0.0        0.0
C_0820           J_0820_IN        J_0820_OUT       11.09      0.0150     0.0        0.0        0.0        0.0
C_0821           J_0821_IN        J_0821_OUT       61.96      0.0150     0.0        0.0        0.0        0.0
C_0822           J_0822_IN        J_0822_OUT       11.32      0.0150     0.0        0.0        0.0        0.0
C_0823           J_0823_IN        J_0823_OUT       10.60      0.0150     0.0        0.0        0.0        0.0
C_0824           J_0824_IN        J_0824_OUT       10.00      0.0150     0.0        0.0        0.0        0.0
C_0825           J_0825_IN        J_0825_OUT       10.00      0.0150     0.0        0.0        0.0        0.0
C_0826           J_0826_IN        J_0826_OUT       13.05      0.0150     0.0        0.0        0.0        0.0
C_0827           J_0827_IN        J_0827_OUT       10.94      0.0150     0.0        0.0        0.0        0.0
C_0828           J_0828_IN        J_0828_OUT       115.54     0.0150     0.0        0.0        0.0        0.0
C_0829           J_0829_IN        J_0829_OUT       10.00      0.0150     0.0        0.0        0.0        0.0
C_0830           J_0830_IN        J_0830_OUT       142.43     0.0150     0.0        0.0        0.0        0.0
C_0831           J_0831_IN        J_0831_OUT       89.40      0.0150     0.0        0.0        0.0        0.0
C_0832           J_0832_IN        J_0832_OUT       69.82      0.0150     0.0        0.0        0.0        0.0
C_0833           J_0833_IN        J_0833_OUT       546.01     0.0150     0.0        0.0        0.0        0.0
C_0834           J_0834_IN        J_0834_OUT       12.03      0.0150     0.0        0.0        0.0        0.0
C_0835           J_0835_IN        J_0835_OUT       148.61     0.0150     0.0        0.0        0.0        0.0
C_0836           J_0836_IN        J_0836_OUT       12.43      0.0150     0.0        0.0        0.0        0.0
C_0837           J_0837_IN        J_0837_OUT       327.93     0.0150     0.0        0.0        0.0        0.0
C_0838           J_0838_IN        J_0838_OUT       21.11      0.0150     0.0        0.0        0.0        0.0
C_0839           J_0839_IN        J_0839_OUT       164.22     0.0150     0.0        0.0        0.0        0.0
C_0840           J_0840_IN        J_0840_OUT       13.02      0.0150     0.0        0.0        0.0        0.0
C_0841           J_0841_IN        J_0841_OUT       21.81      0.0150     0.0        0.0        0.0        0.0
C_0842           J_0842_IN        J_0842_OUT       10.98      0.0150     0.0        0.0        0.0        0.0
C_0843           J_0843_IN        J_0843_OUT       26.12      0.0150     0.0        0.0        0.0        0.0
C_0844           J_0844_IN        J_0844_OUT       17.26      0.0150     0.0        0.0        0.0        0.0
C_0845           J_0845_IN        J_0845_OUT       10.00      0.0150     0.0        0.0        0.0        0.0
C_0846           J_0846_IN        J_0846_OUT       35.02      0.0150     0.0        0.0        0.0        0.0
C_0847           J_0847_IN        J_0847_OUT       11.01      0.0150     0.0        0.0        0.0        0.0
C_0848           J_0848_IN        J_0848_OUT       383.15     0.0150     0.0        0.0        0.0        0.0
C_0849           J_0849_IN        J_0849_OUT       10.00      0.0150     0.0        0.0        0.0        0.0
C_0850           J_0850_IN        J_0850_OUT       10.00      0.0150     0.0        0.0        0.0        0.0
C_0851           J_0851_IN        J_0851_OUT       14.60      0.0150     0.0        0.0        0.0        0.0
C_0852           J_0852_IN        J_0852_OUT       924.06     0.0150     0.0        0.0        0.0        0.0
C_0853           J_0853_IN        J_0853_OUT       12.12      0.0150     0.0        0.0        0.0        0.0
C_0854           J_0854_IN        J_0854_OUT       27.48      0.0150     0.0        0.0        0.0        0.0
C_0855           J_0855_IN        J_0855_OUT       10.00      0.0150     0.0        0.0        0.0        0.0
C_0856           J_0856_IN        J_0856_OUT       10.63      0.0150     0.0        0.0        0.0        0.0
C_0857           J_0857_IN        J_0857_OUT       10.00      0.0150     0.0        0.0        0.0        0.0
C_0858           J_0858_IN        J_0858_OUT       18.10      0.0150     0.0        0.0        0.0        0.0
C_0859           J_0859_IN        J_0859_OUT       10.00      0.0150     0.0        0.0        0.0        0.0
C_0860           J_0860_IN        J_0860_OUT       292.90     0.0150     0.0        0.0        0.0        0.0
C_0861           J_0861_IN        J_0861_OUT       10.00      0.0150     0.0        0.0        0.0        0.0
C_0862           J_0862_IN        J_0862_OUT       34.50      0.0150     0.0        0.0        0.0        0.0
C_0863           J_0863_IN        J_0863_OUT       10.00      0.0150     0.0        0.0        0.0        0.0
C_0864           J_0864_IN        J_0864_OUT       133.36     0.0150     0.0        0.0        0.0        0.0
C_0865           J_0865_IN        J_0865_OUT       12.82      0.0150     0.0        0.0        0.0        0.0
C_0866           J_0866_IN        J_0866_OUT       606.17     0.0150     0.0        0.0        0.0        0.0
C_0867           J_0867_IN        J_0867_OUT       263.69     0.0150     0.0        0.0        0.0        0.0
C_0868           J_0868_IN        J_0868_OUT       278.49     0.0150     0.0        0.0        0.0        0.0
C_0869           J_0869_IN        J_0869_OUT       10.00      0.0150     0.0        0.0        0.0        0.0
C_0870           J_0870_IN        J_0870_OUT       18.61      0.0150     0.0        0.0        0.0        0.0
C_0871           J_0871_IN        J_0871_OUT       10.00      0.0150     0.0        0.0        0.0        0.0
C_0872           J_0872_IN        J_0872_OUT       68.84      0.0150     0.0        0.0        0.0        0.0
C_0873           J_0873_IN        J_0873_OUT       11.12      0.0150     0.0        0.0        0.0        0.0
C_0874           J_0874_IN        J_0874_OUT       61.77      0.0150     0.0        0.0        0.0        0.0
C_0875           J_0875_IN        J_0875_OUT       11.00      0.0150     0.0        0.0        0.0        0.0
C_0876           J_0876_IN        J_0876_OUT       49.89      0.0150     0.0        0.0        0.0        0.0
C_0877           J_0877_IN        J_0877_OUT       12.18      0.0150     0.0        0.0        0.0        0.0
C_0878           J_0878_IN        J_0878_OUT       215.53     0.0150     0.0        0.0        0.0        0.0
C_0879           J_0879_IN        J_0879_OUT       12.00      0.0150     0.0        0.0        0.0        0.0
C_0880           J_0880_IN        J_0880_OUT       20.74      0.0150     0.0        0.0        0.0        0.0
C_0881           J_0881_IN        J_0881_OUT       10.00      0.0150     0.0        0.0        0.0        0.0
C_0882           J_0882_IN        J_0882_OUT       116.46     0.0150     0.0        0.0        0.0        0.0
C_0883           J_0883_IN        J_0883_OUT       11.19      0.0150     0.0        0.0        0.0        0.0
C_0884           J_0884_IN        J_0884_OUT       38.09      0.0150     0.0        0.0        0.0        0.0
C_0885           J_0885_IN        J_0885_OUT       11.00      0.0150     0.0        0.0        0.0        0.0
C_0886           J_0886_IN        J_0886_OUT       119.03     0.0150     0.0        0.0        0.0        0.0
C_0887           J_0887_IN        J_0887_OUT       36.21      0.0150     0.0        0.0        0.0        0.0
C_0888           J_0888_IN        J_0888_OUT       67.74      0.0150     0.0        0.0        0.0        0.0
C_0889           J_0889_IN        J_0889_OUT       10.00      0.0150     0.0        0.0        0.0        0.0
C_0890           J_0890_IN        J_0890_OUT       144.68     0.0150     0.0        0.0        0.0        0.0
C_0891           J_0891_IN        J_0891_OUT       10.00      0.0150     0.0        0.0        0.0        0.0
C_0892           J_0892_IN        J_0892_OUT       10.00      0.0150     0.0        0.0        0.0        0.0
C_0893           J_0893_IN        J_0893_OUT       10.00      0.0150     0.0        0.0        0.0        0.0
C_0894           J_0894_IN        J_0894_OUT       11.64      0.0150     0.0        0.0        0.0        0.0
C_0895           J_0895_IN        J_0895_OUT       11.05      0.0150     0.0        0.0        0.0        0.0
C_0896           J_0896_IN        J_0896_OUT       68.96      0.0150     0.0        0.0        0.0        0.0
C_0897           J_0897_IN        J_0897_OUT       10.00      0.0150     0.0        0.0        0.0        0.0
C_0898           J_0898_IN        J_0898_OUT       351.89     0.0150     0.0        0.0        0.0        0.0
C_0899           J_0899_IN        J_0899_OUT       14.46      0.0150     0.0        0.0        0.0        0.0
C_0900           J_0900_IN        J_0900_OUT       108.14     0.0150     0.0        0.0        0.0        0.0
C_0901           J_0901_IN        J_0901_OUT       10.00      0.0150     0.0        0.0        0.0        0.0
C_0902           J_0902_IN        J_0902_OUT       597.58     0.0150     0.0        0.0        0.0        0.0
C_0903           J_0903_IN        J_0903_OUT       10.98      0.0150     0.0        0.0        0.0        0.0
C_0904           J_0904_IN        J_0904_OUT       1173.65    0.0150     0.0        0.0        0.0        0.0
C_0905           J_0905_IN        J_0905_OUT       17.07      0.0150     0.0        0.0        0.0        0.0
C_0906           J_0906_IN        J_0906_OUT       10.00      0.0150     0.0        0.0        0.0        0.0
C_0907           J_0907_IN        J_0907_OUT       34.90      0.0150     0.0        0.0        0.0        0.0
C_0908           J_0908_IN        J_0908_OUT       160.26     0.0150     0.0        0.0        0.0        0.0
C_0909           J_0909_IN        J_0909_OUT       11.94      0.0150     0.0        0.0        0.0        0.0
C_0910           J_0910_IN        J_0910_OUT       20.28      0.0150     0.0        0.0        0.0        0.0
C_0911           J_0911_IN        J_0911_OUT       11.10      0.0150     0.0        0.0        0.0        0.0
C_0912           J_0912_IN        J_0912_OUT       12.36      0.0150     0.0        0.0        0.0        0.0
C_0913           J_0913_IN        J_0913_OUT       10.00      0.0150     0.0        0.0        0.0        0.0
C_0914           J_0914_IN        J_0914_OUT       1600.27    0.0150     0.0        0.0        0.0        0.0
C_0915           J_0915_IN        J_0915_OUT       805.49     0.0150     0.0        0.0        0.0        0.0

[XSECTIONS]
;;Link           Shape        Geom1      Geom2      Geom3      Geom4      Barrels
C_0000           CIRCULAR     1.20       0.0        0.0        0.0        1
C_0001           CIRCULAR     1.20       0.0        0.0        0.0        1
C_0002           CIRCULAR     1.20       0.0        0.0        0.0        1
C_0003           CIRCULAR     1.20       0.0        0.0        0.0        1
C_0004           CIRCULAR     1.20       0.0        0.0        0.0        1
C_0005           CIRCULAR     1.20       0.0        0.0        0.0        1
C_0006           CIRCULAR     1.20       0.0        0.0        0.0        1
C_0007           CIRCULAR     1.20       0.0        0.0        0.0        1
C_0008           CIRCULAR     1.20       0.0        0.0        0.0        1
C_0009           CIRCULAR     1.20       0.0        0.0        0.0        1
C_0010           CIRCULAR     1.20       0.0        0.0        0.0        1
C_0011           CIRCULAR     1.20       0.0        0.0        0.0        1
C_0012           CIRCULAR     1.20       0.0        0.0        0.0        1
C_0013           CIRCULAR     1.20       0.0        0.0        0.0        1
C_0014           CIRCULAR     1.20       0.0        0.0        0.0        1
C_0015           CIRCULAR     1.20       0.0        0.0        0.0        1
C_0016           CIRCULAR     1.20       0.0        0.0        0.0        1
C_0017           CIRCULAR     1.20       0.0        0.0        0.0        1
C_0018           CIRCULAR     1.20       0.0        0.0        0.0        1
C_0019           CIRCULAR     1.20       0.0        0.0        0.0        1
C_0020           CIRCULAR     1.20       0.0        0.0        0.0        1
C_0021           CIRCULAR     1.20       0.0        0.0        0.0        1
C_0022           CIRCULAR     1.20       0.0        0.0        0.0        1
C_0023           CIRCULAR     1.20       0.0        0.0        0.0        1
C_0024           CIRCULAR     1.20       0.0        0.0        0.0        1
C_0025           CIRCULAR     1.20       0.0        0.0        0.0        1
C_0026           CIRCULAR     1.20       0.0        0.0        0.0        1
C_0027           CIRCULAR     1.20       0.0        0.0        0.0        1
C_0028           CIRCULAR     1.20       0.0        0.0        0.0        1
C_0029           CIRCULAR     1.20       0.0        0.0        0.0        1
C_0030           CIRCULAR     1.20       0.0        0.0        0.0        1
C_0031           CIRCULAR     1.20       0.0        0.0        0.0        1
C_0032           CIRCULAR     1.20       0.0        0.0        0.0        1
C_0033           CIRCULAR     1.20       0.0        0.0        0.0        1
C_0034           CIRCULAR     1.20       0.0        0.0        0.0        1
C_0035           CIRCULAR     1.20       0.0        0.0        0.0        1
C_0036           CIRCULAR     1.20       0.0        0.0        0.0        1
C_0037           CIRCULAR     1.20       0.0        0.0        0.0        1
C_0038           CIRCULAR     1.20       0.0        0.0        0.0        1
C_0039           CIRCULAR     1.20       0.0        0.0        0.0        1
C_0040           CIRCULAR     1.20       0.0        0.0        0.0        1
C_0041           CIRCULAR     1.20       0.0        0.0        0.0        1
C_0042           CIRCULAR     1.20       0.0        0.0        0.0        1
C_0043           CIRCULAR     1.20       0.0        0.0        0.0        1
C_0044           CIRCULAR     1.20       0.0        0.0        0.0        1
C_0045           CIRCULAR     1.20       0.0        0.0        0.0        1
C_0046           CIRCULAR     1.20       0.0        0.0        0.0        1
C_0047           CIRCULAR     1.20       0.0        0.0        0.0        1
C_0048           CIRCULAR     1.20       0.0        0.0        0.0        1
C_0049           CIRCULAR     1.20       0.0        0.0        0.0        1
C_0050           CIRCULAR     1.20       0.0        0.0        0.0        1
C_0051           CIRCULAR     1.20       0.0        0.0        0.0        1
C_0052           CIRCULAR     1.20       0.0        0.0        0.0        1
C_0053           CIRCULAR     1.20       0.0        0.0        0.0        1
C_0054           CIRCULAR     1.20       0.0        0.0        0.0        1
C_0055           CIRCULAR     1.20       0.0        0.0        0.0        1
C_0056           CIRCULAR     1.20       0.0        0.0        0.0        1
C_0057           CIRCULAR     1.20       0.0        0.0        0.0        1
C_0058           CIRCULAR     1.20       0.0        0.0        0.0        1
C_0059           CIRCULAR     1.20       0.0        0.0        0.0        1
C_0060           CIRCULAR     1.20       0.0        0.0        0.0        1
C_0061           CIRCULAR     1.20       0.0        0.0        0.0        1
C_0062           CIRCULAR     1.20       0.0        0.0        0.0        1
C_0063           CIRCULAR     1.20       0.0        0.0        0.0        1
C_0064           CIRCULAR     1.20       0.0        0.0        0.0        1
C_0065           CIRCULAR     1.20       0.0        0.0        0.0        1
C_0066           CIRCULAR     1.20       0.0        0.0        0.0        1
C_0067           CIRCULAR     1.20       0.0        0.0        0.0        1
C_0068           CIRCULAR     1.20       0.0        0.0        0.0        1
C_0069           CIRCULAR     1.20       0.0        0.0        0.0        1
C_0070           CIRCULAR     1.20       0.0        0.0        0.0        1
C_0071           CIRCULAR     1.20       0.0        0.0        0.0        1
C_0072           CIRCULAR     1.20       0.0        0.0        0.0        1
C_0073           CIRCULAR     1.20       0.0        0.0        0.0        1
C_0074           CIRCULAR     1.20       0.0        0.0        0.0        1
C_0075           CIRCULAR     1.20       0.0        0.0        0.0        1
C_0076           CIRCULAR     1.20       0.0        0.0        0.0        1
C_0077           CIRCULAR     1.20       0.0        0.0        0.0        1
C_0078           CIRCULAR     1.20       0.0        0.0        0.0        1
C_0079           CIRCULAR     1.20       0.0        0.0        0.0        1
C_0080           CIRCULAR     1.20       0.0        0.0        0.0        1
C_0081           CIRCULAR     1.20       0.0        0.0        0.0        1
C_0082           CIRCULAR     1.20       0.0        0.0        0.0        1
C_0083           CIRCULAR     1.20       0.0        0.0        0.0        1
C_0084           CIRCULAR     1.20       0.0        0.0        0.0        1
C_0085           CIRCULAR     1.20       0.0        0.0        0.0        1
C_0086           CIRCULAR     1.20       0.0        0.0        0.0        1
C_0087           CIRCULAR     1.20       0.0        0.0        0.0        1
C_0088           CIRCULAR     1.20       0.0        0.0        0.0        1
C_0089           CIRCULAR     1.20       0.0        0.0        0.0        1
C_0090           CIRCULAR     1.20       0.0        0.0        0.0        1
C_0091           CIRCULAR     1.20       0.0        0.0        0.0        1
C_0092           CIRCULAR     1.20       0.0        0.0        0.0        1
C_0093           CIRCULAR     1.20       0.0        0.0        0.0        1
C_0094           CIRCULAR     1.20       0.0        0.0        0.0        1
C_0095           CIRCULAR     1.20       0.0        0.0        0.0        1
C_0096           CIRCULAR     1.20       0.0        0.0        0.0        1
C_0097           CIRCULAR     1.20       0.0        0.0        0.0        1
C_0098           CIRCULAR     1.20       0.0        0.0        0.0        1
C_0099           CIRCULAR     1.20       0.0        0.0        0.0        1
C_0100           CIRCULAR     1.20       0.0        0.0        0.0        1
C_0101           CIRCULAR     1.20       0.0        0.0        0.0        1
C_0102           CIRCULAR     1.20       0.0        0.0        0.0        1
C_0103           CIRCULAR     1.20       0.0        0.0        0.0        1
C_0104           CIRCULAR     1.20       0.0        0.0        0.0        1
C_0105           CIRCULAR     1.20       0.0        0.0        0.0        1
C_0106           CIRCULAR     1.20       0.0        0.0        0.0        1
C_0107           CIRCULAR     1.20       0.0        0.0        0.0        1
C_0108           CIRCULAR     1.20       0.0        0.0        0.0        1
C_0109           CIRCULAR     1.20       0.0        0.0        0.0        1
C_0110           CIRCULAR     1.20       0.0        0.0        0.0        1
C_0111           CIRCULAR     1.20       0.0        0.0        0.0        1
C_0112           CIRCULAR     1.20       0.0        0.0        0.0        1
C_0113           CIRCULAR     1.20       0.0        0.0        0.0        1
C_0114           CIRCULAR     1.20       0.0        0.0        0.0        1
C_0115           CIRCULAR     1.20       0.0        0.0        0.0        1
C_0116           CIRCULAR     1.20       0.0        0.0        0.0        1
C_0117           CIRCULAR     1.20       0.0        0.0        0.0        1
C_0118           CIRCULAR     1.20       0.0        0.0        0.0        1
C_0119           CIRCULAR     1.20       0.0        0.0        0.0        1
C_0120           CIRCULAR     1.20       0.0        0.0        0.0        1
C_0121           CIRCULAR     1.20       0.0        0.0        0.0        1
C_0122           CIRCULAR     1.20       0.0        0.0        0.0        1
C_0123           CIRCULAR     1.20       0.0        0.0        0.0        1
C_0124           CIRCULAR     1.20       0.0        0.0        0.0        1
C_0125           CIRCULAR     1.20       0.0        0.0        0.0        1
C_0126           CIRCULAR     1.20       0.0        0.0        0.0        1
C_0127           CIRCULAR     1.20       0.0        0.0        0.0        1
C_0128           CIRCULAR     1.20       0.0        0.0        0.0        1
C_0129           CIRCULAR     1.20       0.0        0.0        0.0        1
C_0130           CIRCULAR     1.20       0.0        0.0        0.0        1
C_0131           CIRCULAR     1.20       0.0        0.0        0.0        1
C_0132           CIRCULAR     1.20       0.0        0.0        0.0        1
C_0133           CIRCULAR     1.20       0.0        0.0        0.0        1
C_0134           CIRCULAR     1.20       0.0        0.0        0.0        1
C_0135           CIRCULAR     1.20       0.0        0.0        0.0        1
C_0136           CIRCULAR     1.20       0.0        0.0        0.0        1
C_0137           CIRCULAR     1.20       0.0        0.0        0.0        1
C_0138           CIRCULAR     1.20       0.0        0.0        0.0        1
C_0139           CIRCULAR     1.20       0.0        0.0        0.0        1
C_0140           CIRCULAR     1.20       0.0        0.0        0.0        1
C_0141           CIRCULAR     1.20       0.0        0.0        0.0        1
C_0142           CIRCULAR     1.20       0.0        0.0        0.0        1
C_0143           CIRCULAR     1.20       0.0        0.0        0.0        1
C_0144           CIRCULAR     1.20       0.0        0.0        0.0        1
C_0145           CIRCULAR     1.20       0.0        0.0        0.0        1
C_0146           CIRCULAR     1.20       0.0        0.0        0.0        1
C_0147           CIRCULAR     1.20       0.0        0.0        0.0        1
C_0148           CIRCULAR     1.20       0.0        0.0        0.0        1
C_0149           CIRCULAR     1.20       0.0        0.0        0.0        1
C_0150           CIRCULAR     1.20       0.0        0.0        0.0        1
C_0151           CIRCULAR     1.20       0.0        0.0        0.0        1
C_0152           CIRCULAR     1.20       0.0        0.0        0.0        1
C_0153           CIRCULAR     1.20       0.0        0.0        0.0        1
C_0154           CIRCULAR     1.20       0.0        0.0        0.0        1
C_0155           CIRCULAR     1.20       0.0        0.0        0.0        1
C_0156           CIRCULAR     1.20       0.0        0.0        0.0        1
C_0157           CIRCULAR     1.20       0.0        0.0        0.0        1
C_0158           CIRCULAR     1.20       0.0        0.0        0.0        1
C_0159           CIRCULAR     1.20       0.0        0.0        0.0        1
C_0160           CIRCULAR     1.20       0.0        0.0        0.0        1
C_0161           CIRCULAR     1.20       0.0        0.0        0.0        1
C_0162           CIRCULAR     1.20       0.0        0.0        0.0        1
C_0163           CIRCULAR     1.20       0.0        0.0        0.0        1
C_0164           CIRCULAR     1.20       0.0        0.0        0.0        1
C_0165           CIRCULAR     1.20       0.0        0.0        0.0        1
C_0166           CIRCULAR     1.20       0.0        0.0        0.0        1
C_0167           CIRCULAR     1.20       0.0        0.0        0.0        1
C_0168           CIRCULAR     1.20       0.0        0.0        0.0        1
C_0169           CIRCULAR     1.20       0.0        0.0        0.0        1
C_0170           CIRCULAR     1.20       0.0        0.0        0.0        1
C_0171           CIRCULAR     1.20       0.0        0.0        0.0        1
C_0172           CIRCULAR     1.20       0.0        0.0        0.0        1
C_0173           CIRCULAR     1.20       0.0        0.0        0.0        1
C_0174           CIRCULAR     1.20       0.0        0.0        0.0        1
C_0175           CIRCULAR     1.20       0.0        0.0        0.0        1
C_0176           CIRCULAR     1.20       0.0        0.0        0.0        1
C_0177           CIRCULAR     1.20       0.0        0.0        0.0        1
C_0178           CIRCULAR     1.20       0.0        0.0        0.0        1
C_0179           CIRCULAR     1.20       0.0        0.0        0.0        1
C_0180           CIRCULAR     1.20       0.0        0.0        0.0        1
C_0181           CIRCULAR     1.20       0.0        0.0        0.0        1
C_0182           CIRCULAR     1.20       0.0        0.0        0.0        1
C_0183           CIRCULAR     1.20       0.0        0.0        0.0        1
C_0184           CIRCULAR     1.20       0.0        0.0        0.0        1
C_0185           CIRCULAR     1.20       0.0        0.0        0.0        1
C_0186           CIRCULAR     1.20       0.0        0.0        0.0        1
C_0187           CIRCULAR     1.20       0.0        0.0        0.0        1
C_0188           CIRCULAR     1.20       0.0        0.0        0.0        1
C_0189           CIRCULAR     1.20       0.0        0.0        0.0        1
C_0190           CIRCULAR     1.20       0.0        0.0        0.0        1
C_0191           CIRCULAR     1.20       0.0        0.0        0.0        1
C_0192           CIRCULAR     1.20       0.0        0.0        0.0        1
C_0193           CIRCULAR     1.20       0.0        0.0        0.0        1
C_0194           CIRCULAR     1.20       0.0        0.0        0.0        1
C_0195           CIRCULAR     1.20       0.0        0.0        0.0        1
C_0196           CIRCULAR     1.20       0.0        0.0        0.0        1
C_0197           CIRCULAR     1.20       0.0        0.0        0.0        1
C_0198           CIRCULAR     1.20       0.0        0.0        0.0        1
C_0199           CIRCULAR     1.20       0.0        0.0        0.0        1
C_0200           CIRCULAR     1.20       0.0        0.0        0.0        1
C_0201           CIRCULAR     1.20       0.0        0.0        0.0        1
C_0202           CIRCULAR     1.20       0.0        0.0        0.0        1
C_0203           CIRCULAR     1.20       0.0        0.0        0.0        1
C_0204           CIRCULAR     1.20       0.0        0.0        0.0        1
C_0205           CIRCULAR     1.20       0.0        0.0        0.0        1
C_0206           CIRCULAR     1.20       0.0        0.0        0.0        1
C_0207           CIRCULAR     1.20       0.0        0.0        0.0        1
C_0208           CIRCULAR     1.20       0.0        0.0        0.0        1
C_0209           CIRCULAR     1.20       0.0        0.0        0.0        1
C_0210           CIRCULAR     1.20       0.0        0.0        0.0        1
C_0211           CIRCULAR     1.20       0.0        0.0        0.0        1
C_0212           CIRCULAR     1.20       0.0        0.0        0.0        1
C_0213           CIRCULAR     1.20       0.0        0.0        0.0        1
C_0214           CIRCULAR     1.20       0.0        0.0        0.0        1
C_0215           CIRCULAR     1.20       0.0        0.0        0.0        1
C_0216           CIRCULAR     1.20       0.0        0.0        0.0        1
C_0217           CIRCULAR     1.20       0.0        0.0        0.0        1
C_0218           CIRCULAR     1.20       0.0        0.0        0.0        1
C_0219           CIRCULAR     1.20       0.0        0.0        0.0        1
C_0220           CIRCULAR     1.20       0.0        0.0        0.0        1
C_0221           CIRCULAR     1.20       0.0        0.0        0.0        1
C_0222           CIRCULAR     1.20       0.0        0.0        0.0        1
C_0223           CIRCULAR     1.20       0.0        0.0        0.0        1
C_0224           CIRCULAR     1.20       0.0        0.0        0.0        1
C_0225           CIRCULAR     1.20       0.0        0.0        0.0        1
C_0226           CIRCULAR     1.20       0.0        0.0        0.0        1
C_0227           CIRCULAR     1.20       0.0        0.0        0.0        1
C_0228           CIRCULAR     1.20       0.0        0.0        0.0        1
C_0229           CIRCULAR     1.20       0.0        0.0        0.0        1
C_0230           CIRCULAR     1.20       0.0        0.0        0.0        1
C_0231           CIRCULAR     1.20       0.0        0.0        0.0        1
C_0232           CIRCULAR     1.20       0.0        0.0        0.0        1
C_0233           CIRCULAR     1.20       0.0        0.0        0.0        1
C_0234           CIRCULAR     1.20       0.0        0.0        0.0        1
C_0235           CIRCULAR     1.20       0.0        0.0        0.0        1
C_0236           CIRCULAR     1.20       0.0        0.0        0.0        1
C_0237           CIRCULAR     1.20       0.0        0.0        0.0        1
C_0238           CIRCULAR     1.20       0.0        0.0        0.0        1
C_0239           CIRCULAR     1.20       0.0        0.0        0.0        1
C_0240           CIRCULAR     1.20       0.0        0.0        0.0        1
C_0241           CIRCULAR     1.20       0.0        0.0        0.0        1
C_0242           CIRCULAR     1.20       0.0        0.0        0.0        1
C_0243           CIRCULAR     1.20       0.0        0.0        0.0        1
C_0244           CIRCULAR     1.20       0.0        0.0        0.0        1
C_0245           CIRCULAR     1.20       0.0        0.0        0.0        1
C_0246           CIRCULAR     1.20       0.0        0.0        0.0        1
C_0247           CIRCULAR     1.20       0.0        0.0        0.0        1
C_0248           CIRCULAR     1.20       0.0        0.0        0.0        1
C_0249           CIRCULAR     1.20       0.0        0.0        0.0        1
C_0250           CIRCULAR     1.20       0.0        0.0        0.0        1
C_0251           CIRCULAR     1.20       0.0        0.0        0.0        1
C_0252           CIRCULAR     1.20       0.0        0.0        0.0        1
C_0253           CIRCULAR     1.20       0.0        0.0        0.0        1
C_0254           CIRCULAR     1.20       0.0        0.0        0.0        1
C_0255           CIRCULAR     1.20       0.0        0.0        0.0        1
C_0256           CIRCULAR     1.20       0.0        0.0        0.0        1
C_0257           CIRCULAR     1.20       0.0        0.0        0.0        1
C_0258           CIRCULAR     1.20       0.0        0.0        0.0        1
C_0259           CIRCULAR     1.20       0.0        0.0        0.0        1
C_0260           CIRCULAR     1.20       0.0        0.0        0.0        1
C_0261           CIRCULAR     1.20       0.0        0.0        0.0        1
C_0262           CIRCULAR     1.20       0.0        0.0        0.0        1
C_0263           CIRCULAR     1.20       0.0        0.0        0.0        1
C_0264           CIRCULAR     1.20       0.0        0.0        0.0        1
C_0265           CIRCULAR     1.20       0.0        0.0        0.0        1
C_0266           CIRCULAR     1.20       0.0        0.0        0.0        1
C_0267           CIRCULAR     1.20       0.0        0.0        0.0        1
C_0268           CIRCULAR     1.20       0.0        0.0        0.0        1
C_0269           CIRCULAR     1.20       0.0        0.0        0.0        1
C_0270           CIRCULAR     1.20       0.0        0.0        0.0        1
C_0271           CIRCULAR     1.20       0.0        0.0        0.0        1
C_0272           CIRCULAR     1.20       0.0        0.0        0.0        1
C_0273           CIRCULAR     1.20       0.0        0.0        0.0        1
C_0274           CIRCULAR     1.20       0.0        0.0        0.0        1
C_0275           CIRCULAR     1.20       0.0        0.0        0.0        1
C_0276           CIRCULAR     1.20       0.0        0.0        0.0        1
C_0277           CIRCULAR     1.20       0.0        0.0        0.0        1
C_0278           CIRCULAR     1.20       0.0        0.0        0.0        1
C_0279           CIRCULAR     1.20       0.0        0.0        0.0        1
C_0280           CIRCULAR     1.20       0.0        0.0        0.0        1
C_0281           CIRCULAR     1.20       0.0        0.0        0.0        1
C_0282           CIRCULAR     1.20       0.0        0.0        0.0        1
C_0283           CIRCULAR     1.20       0.0        0.0        0.0        1
C_0284           CIRCULAR     1.20       0.0        0.0        0.0        1
C_0285           CIRCULAR     1.20       0.0        0.0        0.0        1
C_0286           CIRCULAR     1.20       0.0        0.0        0.0        1
C_0287           CIRCULAR     1.20       0.0        0.0        0.0        1
C_0288           CIRCULAR     1.20       0.0        0.0        0.0        1
C_0289           CIRCULAR     1.20       0.0        0.0        0.0        1
C_0290           CIRCULAR     1.20       0.0        0.0        0.0        1
C_0291           CIRCULAR     1.20       0.0        0.0        0.0        1
C_0292           CIRCULAR     1.20       0.0        0.0        0.0        1
C_0293           CIRCULAR     1.20       0.0        0.0        0.0        1
C_0294           CIRCULAR     1.20       0.0        0.0        0.0        1
C_0295           CIRCULAR     1.20       0.0        0.0        0.0        1
C_0296           CIRCULAR     1.20       0.0        0.0        0.0        1
C_0297           CIRCULAR     1.20       0.0        0.0        0.0        1
C_0298           CIRCULAR     1.20       0.0        0.0        0.0        1
C_0299           CIRCULAR     1.20       0.0        0.0        0.0        1
C_0300           CIRCULAR     1.20       0.0        0.0        0.0        1
C_0301           CIRCULAR     1.20       0.0        0.0        0.0        1
C_0302           CIRCULAR     1.20       0.0        0.0        0.0        1
C_0303           CIRCULAR     1.20       0.0        0.0        0.0        1
C_0304           CIRCULAR     1.20       0.0        0.0        0.0        1
C_0305           CIRCULAR     1.20       0.0        0.0        0.0        1
C_0306           CIRCULAR     1.20       0.0        0.0        0.0        1
C_0307           CIRCULAR     1.20       0.0        0.0        0.0        1
C_0308           CIRCULAR     1.20       0.0        0.0        0.0        1
C_0309           CIRCULAR     1.20       0.0        0.0        0.0        1
C_0310           CIRCULAR     1.20       0.0        0.0        0.0        1
C_0311           CIRCULAR     1.20       0.0        0.0        0.0        1
C_0312           CIRCULAR     1.20       0.0        0.0        0.0        1
C_0313           CIRCULAR     1.20       0.0        0.0        0.0        1
C_0314           CIRCULAR     1.20       0.0        0.0        0.0        1
C_0315           CIRCULAR     1.20       0.0        0.0        0.0        1
C_0316           CIRCULAR     1.20       0.0        0.0        0.0        1
C_0317           CIRCULAR     1.20       0.0        0.0        0.0        1
C_0318           CIRCULAR     1.20       0.0        0.0        0.0        1
C_0319           CIRCULAR     1.20       0.0        0.0        0.0        1
C_0320           CIRCULAR     1.20       0.0        0.0        0.0        1
C_0321           CIRCULAR     1.20       0.0        0.0        0.0        1
C_0322           CIRCULAR     1.20       0.0        0.0        0.0        1
C_0323           CIRCULAR     1.20       0.0        0.0        0.0        1
C_0324           CIRCULAR     1.20       0.0        0.0        0.0        1
C_0325           CIRCULAR     1.20       0.0        0.0        0.0        1
C_0326           CIRCULAR     1.20       0.0        0.0        0.0        1
C_0327           CIRCULAR     1.20       0.0        0.0        0.0        1
C_0328           CIRCULAR     1.20       0.0        0.0        0.0        1
C_0329           CIRCULAR     1.20       0.0        0.0        0.0        1
C_0330           CIRCULAR     1.20       0.0        0.0        0.0        1
C_0331           CIRCULAR     1.20       0.0        0.0        0.0        1
C_0332           CIRCULAR     1.20       0.0        0.0        0.0        1
C_0333           CIRCULAR     1.20       0.0        0.0        0.0        1
C_0334           CIRCULAR     1.20       0.0        0.0        0.0        1
C_0335           CIRCULAR     1.20       0.0        0.0        0.0        1
C_0336           CIRCULAR     1.20       0.0        0.0        0.0        1
C_0337           CIRCULAR     1.20       0.0        0.0        0.0        1
C_0338           CIRCULAR     1.20       0.0        0.0        0.0        1
C_0339           CIRCULAR     1.20       0.0        0.0        0.0        1
C_0340           CIRCULAR     1.20       0.0        0.0        0.0        1
C_0341           CIRCULAR     1.20       0.0        0.0        0.0        1
C_0342           CIRCULAR     1.20       0.0        0.0        0.0        1
C_0343           CIRCULAR     1.20       0.0        0.0        0.0        1
C_0344           CIRCULAR     1.20       0.0        0.0        0.0        1
C_0345           CIRCULAR     1.20       0.0        0.0        0.0        1
C_0346           CIRCULAR     1.20       0.0        0.0        0.0        1
C_0347           CIRCULAR     1.20       0.0        0.0        0.0        1
C_0348           CIRCULAR     1.20       0.0        0.0        0.0        1
C_0349           CIRCULAR     1.20       0.0        0.0        0.0        1
C_0350           CIRCULAR     1.20       0.0        0.0        0.0        1
C_0351           CIRCULAR     1.20       0.0        0.0        0.0        1
C_0352           CIRCULAR     1.20       0.0        0.0        0.0        1
C_0353           CIRCULAR     1.20       0.0        0.0        0.0        1
C_0354           CIRCULAR     1.20       0.0        0.0        0.0        1
C_0355           CIRCULAR     1.20       0.0        0.0        0.0        1
C_0356           CIRCULAR     1.20       0.0        0.0        0.0        1
C_0357           CIRCULAR     1.20       0.0        0.0        0.0        1
C_0358           CIRCULAR     1.20       0.0        0.0        0.0        1
C_0359           CIRCULAR     1.20       0.0        0.0        0.0        1
C_0360           CIRCULAR     1.20       0.0        0.0        0.0        1
C_0361           CIRCULAR     1.20       0.0        0.0        0.0        1
C_0362           CIRCULAR     1.20       0.0        0.0        0.0        1
C_0363           CIRCULAR     1.20       0.0        0.0        0.0        1
C_0364           CIRCULAR     1.20       0.0        0.0        0.0        1
C_0365           CIRCULAR     1.20       0.0        0.0        0.0        1
C_0366           CIRCULAR     1.20       0.0        0.0        0.0        1
C_0367           CIRCULAR     1.20       0.0        0.0        0.0        1
C_0368           CIRCULAR     1.20       0.0        0.0        0.0        1
C_0369           CIRCULAR     1.20       0.0        0.0        0.0        1
C_0370           CIRCULAR     1.20       0.0        0.0        0.0        1
C_0371           CIRCULAR     1.20       0.0        0.0        0.0        1
C_0372           CIRCULAR     1.20       0.0        0.0        0.0        1
C_0373           CIRCULAR     1.20       0.0        0.0        0.0        1
C_0374           CIRCULAR     1.20       0.0        0.0        0.0        1
C_0375           CIRCULAR     1.20       0.0        0.0        0.0        1
C_0376           CIRCULAR     1.20       0.0        0.0        0.0        1
C_0377           CIRCULAR     1.20       0.0        0.0        0.0        1
C_0378           CIRCULAR     1.20       0.0        0.0        0.0        1
C_0379           CIRCULAR     1.20       0.0        0.0        0.0        1
C_0380           CIRCULAR     1.20       0.0        0.0        0.0        1
C_0381           CIRCULAR     1.20       0.0        0.0        0.0        1
C_0382           CIRCULAR     1.20       0.0        0.0        0.0        1
C_0383           CIRCULAR     1.20       0.0        0.0        0.0        1
C_0384           CIRCULAR     1.20       0.0        0.0        0.0        1
C_0385           CIRCULAR     1.20       0.0        0.0        0.0        1
C_0386           CIRCULAR     1.20       0.0        0.0        0.0        1
C_0387           CIRCULAR     1.20       0.0        0.0        0.0        1
C_0388           CIRCULAR     1.20       0.0        0.0        0.0        1
C_0389           CIRCULAR     1.20       0.0        0.0        0.0        1
C_0390           CIRCULAR     1.20       0.0        0.0        0.0        1
C_0391           CIRCULAR     1.20       0.0        0.0        0.0        1
C_0392           CIRCULAR     1.20       0.0        0.0        0.0        1
C_0393           CIRCULAR     1.20       0.0        0.0        0.0        1
C_0394           CIRCULAR     1.20       0.0        0.0        0.0        1
C_0395           CIRCULAR     1.20       0.0        0.0        0.0        1
C_0396           CIRCULAR     1.20       0.0        0.0        0.0        1
C_0397           CIRCULAR     1.20       0.0        0.0        0.0        1
C_0398           CIRCULAR     1.20       0.0        0.0        0.0        1
C_0399           CIRCULAR     1.20       0.0        0.0        0.0        1
C_0400           CIRCULAR     1.20       0.0        0.0        0.0        1
C_0401           CIRCULAR     1.20       0.0        0.0        0.0        1
C_0402           CIRCULAR     1.20       0.0        0.0        0.0        1
C_0403           CIRCULAR     1.20       0.0        0.0        0.0        1
C_0404           CIRCULAR     1.20       0.0        0.0        0.0        1
C_0405           CIRCULAR     1.20       0.0        0.0        0.0        1
C_0406           CIRCULAR     1.20       0.0        0.0        0.0        1
C_0407           CIRCULAR     1.20       0.0        0.0        0.0        1
C_0408           CIRCULAR     1.20       0.0        0.0        0.0        1
C_0409           CIRCULAR     1.20       0.0        0.0        0.0        1
C_0410           CIRCULAR     1.20       0.0        0.0        0.0        1
C_0411           CIRCULAR     1.20       0.0        0.0        0.0        1
C_0412           CIRCULAR     1.20       0.0        0.0        0.0        1
C_0413           CIRCULAR     1.20       0.0        0.0        0.0        1
C_0414           CIRCULAR     1.20       0.0        0.0        0.0        1
C_0415           CIRCULAR     1.20       0.0        0.0        0.0        1
C_0416           CIRCULAR     1.20       0.0        0.0        0.0        1
C_0417           CIRCULAR     1.20       0.0        0.0        0.0        1
C_0418           CIRCULAR     1.20       0.0        0.0        0.0        1
C_0419           CIRCULAR     1.20       0.0        0.0        0.0        1
C_0420           CIRCULAR     1.20       0.0        0.0        0.0        1
C_0421           CIRCULAR     1.20       0.0        0.0        0.0        1
C_0422           CIRCULAR     1.20       0.0        0.0        0.0        1
C_0423           CIRCULAR     1.20       0.0        0.0        0.0        1
C_0424           CIRCULAR     1.20       0.0        0.0        0.0        1
C_0425           CIRCULAR     1.20       0.0        0.0        0.0        1
C_0426           CIRCULAR     1.20       0.0        0.0        0.0        1
C_0427           CIRCULAR     1.20       0.0        0.0        0.0        1
C_0428           CIRCULAR     1.20       0.0        0.0        0.0        1
C_0429           CIRCULAR     1.20       0.0        0.0        0.0        1
C_0430           CIRCULAR     1.20       0.0        0.0        0.0        1
C_0431           CIRCULAR     1.20       0.0        0.0        0.0        1
C_0432           CIRCULAR     1.20       0.0        0.0        0.0        1
C_0433           CIRCULAR     1.20       0.0        0.0        0.0        1
C_0434           CIRCULAR     1.20       0.0        0.0        0.0        1
C_0435           CIRCULAR     1.20       0.0        0.0        0.0        1
C_0436           CIRCULAR     1.20       0.0        0.0        0.0        1
C_0437           CIRCULAR     1.20       0.0        0.0        0.0        1
C_0438           CIRCULAR     1.20       0.0        0.0        0.0        1
C_0439           CIRCULAR     1.20       0.0        0.0        0.0        1
C_0440           CIRCULAR     1.20       0.0        0.0        0.0        1
C_0441           CIRCULAR     1.20       0.0        0.0        0.0        1
C_0442           CIRCULAR     1.20       0.0        0.0        0.0        1
C_0443           CIRCULAR     1.20       0.0        0.0        0.0        1
C_0444           CIRCULAR     1.20       0.0        0.0        0.0        1
C_0445           CIRCULAR     1.20       0.0        0.0        0.0        1
C_0446           CIRCULAR     1.20       0.0        0.0        0.0        1
C_0447           CIRCULAR     1.20       0.0        0.0        0.0        1
C_0448           CIRCULAR     1.20       0.0        0.0        0.0        1
C_0449           CIRCULAR     1.20       0.0        0.0        0.0        1
C_0450           CIRCULAR     1.20       0.0        0.0        0.0        1
C_0451           CIRCULAR     1.20       0.0        0.0        0.0        1
C_0452           CIRCULAR     1.20       0.0        0.0        0.0        1
C_0453           CIRCULAR     1.20       0.0        0.0        0.0        1
C_0454           CIRCULAR     1.20       0.0        0.0        0.0        1
C_0455           CIRCULAR     1.20       0.0        0.0        0.0        1
C_0456           CIRCULAR     1.20       0.0        0.0        0.0        1
C_0457           CIRCULAR     1.20       0.0        0.0        0.0        1
C_0458           CIRCULAR     1.20       0.0        0.0        0.0        1
C_0459           CIRCULAR     1.20       0.0        0.0        0.0        1
C_0460           CIRCULAR     1.20       0.0        0.0        0.0        1
C_0461           CIRCULAR     1.20       0.0        0.0        0.0        1
C_0462           CIRCULAR     1.20       0.0        0.0        0.0        1
C_0463           CIRCULAR     1.20       0.0        0.0        0.0        1
C_0464           CIRCULAR     1.20       0.0        0.0        0.0        1
C_0465           CIRCULAR     1.20       0.0        0.0        0.0        1
C_0466           CIRCULAR     1.20       0.0        0.0        0.0        1
C_0467           CIRCULAR     1.20       0.0        0.0        0.0        1
C_0468           CIRCULAR     1.20       0.0        0.0        0.0        1
C_0469           CIRCULAR     1.20       0.0        0.0        0.0        1
C_0470           CIRCULAR     1.20       0.0        0.0        0.0        1
C_0471           CIRCULAR     1.20       0.0        0.0        0.0        1
C_0472           CIRCULAR     1.20       0.0        0.0        0.0        1
C_0473           CIRCULAR     1.20       0.0        0.0        0.0        1
C_0474           CIRCULAR     1.20       0.0        0.0        0.0        1
C_0475           CIRCULAR     1.20       0.0        0.0        0.0        1
C_0476           CIRCULAR     1.20       0.0        0.0        0.0        1
C_0477           CIRCULAR     1.20       0.0        0.0        0.0        1
C_0478           CIRCULAR     1.20       0.0        0.0        0.0        1
C_0479           CIRCULAR     1.20       0.0        0.0        0.0        1
C_0480           CIRCULAR     1.20       0.0        0.0        0.0        1
C_0481           CIRCULAR     1.20       0.0        0.0        0.0        1
C_0482           CIRCULAR     1.20       0.0        0.0        0.0        1
C_0483           CIRCULAR     1.20       0.0        0.0        0.0        1
C_0484           CIRCULAR     1.20       0.0        0.0        0.0        1
C_0485           CIRCULAR     1.20       0.0        0.0        0.0        1
C_0486           CIRCULAR     1.20       0.0        0.0        0.0        1
C_0487           CIRCULAR     1.20       0.0        0.0        0.0        1
C_0488           CIRCULAR     1.20       0.0        0.0        0.0        1
C_0489           CIRCULAR     1.20       0.0        0.0        0.0        1
C_0490           CIRCULAR     1.20       0.0        0.0        0.0        1
C_0491           CIRCULAR     1.20       0.0        0.0        0.0        1
C_0492           CIRCULAR     1.20       0.0        0.0        0.0        1
C_0493           CIRCULAR     1.20       0.0        0.0        0.0        1
C_0494           CIRCULAR     1.20       0.0        0.0        0.0        1
C_0495           CIRCULAR     1.20       0.0        0.0        0.0        1
C_0496           CIRCULAR     1.20       0.0        0.0        0.0        1
C_0497           CIRCULAR     1.20       0.0        0.0        0.0        1
C_0498           CIRCULAR     1.20       0.0        0.0        0.0        1
C_0499           CIRCULAR     1.20       0.0        0.0        0.0        1
C_0500           CIRCULAR     1.20       0.0        0.0        0.0        1
C_0501           CIRCULAR     1.20       0.0        0.0        0.0        1
C_0502           CIRCULAR     1.20       0.0        0.0        0.0        1
C_0503           CIRCULAR     1.20       0.0        0.0        0.0        1
C_0504           CIRCULAR     1.20       0.0        0.0        0.0        1
C_0505           CIRCULAR     1.20       0.0        0.0        0.0        1
C_0506           CIRCULAR     1.20       0.0        0.0        0.0        1
C_0507           CIRCULAR     1.20       0.0        0.0        0.0        1
C_0508           CIRCULAR     1.20       0.0        0.0        0.0        1
C_0509           CIRCULAR     1.20       0.0        0.0        0.0        1
C_0510           CIRCULAR     1.20       0.0        0.0        0.0        1
C_0511           CIRCULAR     1.20       0.0        0.0        0.0        1
C_0512           CIRCULAR     1.20       0.0        0.0        0.0        1
C_0513           CIRCULAR     1.20       0.0        0.0        0.0        1
C_0514           CIRCULAR     1.20       0.0        0.0        0.0        1
C_0515           CIRCULAR     1.20       0.0        0.0        0.0        1
C_0516           CIRCULAR     1.20       0.0        0.0        0.0        1
C_0517           CIRCULAR     1.20       0.0        0.0        0.0        1
C_0518           CIRCULAR     1.20       0.0        0.0        0.0        1
C_0519           CIRCULAR     1.20       0.0        0.0        0.0        1
C_0520           CIRCULAR     1.20       0.0        0.0        0.0        1
C_0521           CIRCULAR     1.20       0.0        0.0        0.0        1
C_0522           CIRCULAR     1.20       0.0        0.0        0.0        1
C_0523           CIRCULAR     1.20       0.0        0.0        0.0        1
C_0524           CIRCULAR     1.20       0.0        0.0        0.0        1
C_0525           CIRCULAR     1.20       0.0        0.0        0.0        1
C_0526           CIRCULAR     1.20       0.0        0.0        0.0        1
C_0527           CIRCULAR     1.20       0.0        0.0        0.0        1
C_0528           CIRCULAR     1.20       0.0        0.0        0.0        1
C_0529           CIRCULAR     1.20       0.0        0.0        0.0        1
C_0530           CIRCULAR     1.20       0.0        0.0        0.0        1
C_0531           CIRCULAR     1.20       0.0        0.0        0.0        1
C_0532           CIRCULAR     1.20       0.0        0.0        0.0        1
C_0533           CIRCULAR     1.20       0.0        0.0        0.0        1
C_0534           CIRCULAR     1.20       0.0        0.0        0.0        1
C_0535           CIRCULAR     1.20       0.0        0.0        0.0        1
C_0536           CIRCULAR     1.20       0.0        0.0        0.0        1
C_0537           CIRCULAR     1.20       0.0        0.0        0.0        1
C_0538           CIRCULAR     1.20       0.0        0.0        0.0        1
C_0539           CIRCULAR     1.20       0.0        0.0        0.0        1
C_0540           CIRCULAR     1.20       0.0        0.0        0.0        1
C_0541           CIRCULAR     1.20       0.0        0.0        0.0        1
C_0542           CIRCULAR     1.20       0.0        0.0        0.0        1
C_0543           CIRCULAR     1.20       0.0        0.0        0.0        1
C_0544           CIRCULAR     1.20       0.0        0.0        0.0        1
C_0545           CIRCULAR     1.20       0.0        0.0        0.0        1
C_0546           CIRCULAR     1.20       0.0        0.0        0.0        1
C_0547           CIRCULAR     1.20       0.0        0.0        0.0        1
C_0548           CIRCULAR     1.20       0.0        0.0        0.0        1
C_0549           CIRCULAR     1.20       0.0        0.0        0.0        1
C_0550           CIRCULAR     1.20       0.0        0.0        0.0        1
C_0551           CIRCULAR     1.20       0.0        0.0        0.0        1
C_0552           CIRCULAR     1.20       0.0        0.0        0.0        1
C_0553           CIRCULAR     1.20       0.0        0.0        0.0        1
C_0554           CIRCULAR     1.20       0.0        0.0        0.0        1
C_0555           CIRCULAR     1.20       0.0        0.0        0.0        1
C_0556           CIRCULAR     1.20       0.0        0.0        0.0        1
C_0557           CIRCULAR     1.20       0.0        0.0        0.0        1
C_0558           CIRCULAR     1.20       0.0        0.0        0.0        1
C_0559           CIRCULAR     1.20       0.0        0.0        0.0        1
C_0560           CIRCULAR     1.20       0.0        0.0        0.0        1
C_0561           CIRCULAR     1.20       0.0        0.0        0.0        1
C_0562           CIRCULAR     1.20       0.0        0.0        0.0        1
C_0563           CIRCULAR     1.20       0.0        0.0        0.0        1
C_0564           CIRCULAR     1.20       0.0        0.0        0.0        1
C_0565           CIRCULAR     1.20       0.0        0.0        0.0        1
C_0566           CIRCULAR     1.20       0.0        0.0        0.0        1
C_0567           CIRCULAR     1.20       0.0        0.0        0.0        1
C_0568           CIRCULAR     1.20       0.0        0.0        0.0        1
C_0569           CIRCULAR     1.20       0.0        0.0        0.0        1
C_0570           CIRCULAR     1.20       0.0        0.0        0.0        1
C_0571           CIRCULAR     1.20       0.0        0.0        0.0        1
C_0572           CIRCULAR     1.20       0.0        0.0        0.0        1
C_0573           CIRCULAR     1.20       0.0        0.0        0.0        1
C_0574           CIRCULAR     1.20       0.0        0.0        0.0        1
C_0575           CIRCULAR     1.20       0.0        0.0        0.0        1
C_0576           CIRCULAR     1.20       0.0        0.0        0.0        1
C_0577           CIRCULAR     1.20       0.0        0.0        0.0        1
C_0578           CIRCULAR     1.20       0.0        0.0        0.0        1
C_0579           CIRCULAR     1.20       0.0        0.0        0.0        1
C_0580           CIRCULAR     1.20       0.0        0.0        0.0        1
C_0581           CIRCULAR     1.20       0.0        0.0        0.0        1
C_0582           CIRCULAR     1.20       0.0        0.0        0.0        1
C_0583           CIRCULAR     1.20       0.0        0.0        0.0        1
C_0584           CIRCULAR     1.20       0.0        0.0        0.0        1
C_0585           CIRCULAR     1.20       0.0        0.0        0.0        1
C_0586           CIRCULAR     1.20       0.0        0.0        0.0        1
C_0587           CIRCULAR     1.20       0.0        0.0        0.0        1
C_0588           CIRCULAR     1.20       0.0        0.0        0.0        1
C_0589           CIRCULAR     1.20       0.0        0.0        0.0        1
C_0590           CIRCULAR     1.20       0.0        0.0        0.0        1
C_0591           CIRCULAR     1.20       0.0        0.0        0.0        1
C_0592           CIRCULAR     1.20       0.0        0.0        0.0        1
C_0593           CIRCULAR     1.20       0.0        0.0        0.0        1
C_0594           CIRCULAR     1.20       0.0        0.0        0.0        1
C_0595           CIRCULAR     1.20       0.0        0.0        0.0        1
C_0596           CIRCULAR     1.20       0.0        0.0        0.0        1
C_0597           CIRCULAR     1.20       0.0        0.0        0.0        1
C_0598           CIRCULAR     1.20       0.0        0.0        0.0        1
C_0599           CIRCULAR     1.20       0.0        0.0        0.0        1
C_0600           CIRCULAR     1.20       0.0        0.0        0.0        1
C_0601           CIRCULAR     1.20       0.0        0.0        0.0        1
C_0602           CIRCULAR     1.20       0.0        0.0        0.0        1
C_0603           CIRCULAR     1.20       0.0        0.0        0.0        1
C_0604           CIRCULAR     1.20       0.0        0.0        0.0        1
C_0605           CIRCULAR     1.20       0.0        0.0        0.0        1
C_0606           CIRCULAR     1.20       0.0        0.0        0.0        1
C_0607           CIRCULAR     1.20       0.0        0.0        0.0        1
C_0608           CIRCULAR     1.20       0.0        0.0        0.0        1
C_0609           CIRCULAR     1.20       0.0        0.0        0.0        1
C_0610           CIRCULAR     1.20       0.0        0.0        0.0        1
C_0611           CIRCULAR     1.20       0.0        0.0        0.0        1
C_0612           CIRCULAR     1.20       0.0        0.0        0.0        1
C_0613           CIRCULAR     1.20       0.0        0.0        0.0        1
C_0614           CIRCULAR     1.20       0.0        0.0        0.0        1
C_0615           CIRCULAR     1.20       0.0        0.0        0.0        1
C_0616           CIRCULAR     1.20       0.0        0.0        0.0        1
C_0617           CIRCULAR     1.20       0.0        0.0        0.0        1
C_0618           CIRCULAR     1.20       0.0        0.0        0.0        1
C_0619           CIRCULAR     1.20       0.0        0.0        0.0        1
C_0620           CIRCULAR     1.20       0.0        0.0        0.0        1
C_0621           CIRCULAR     1.20       0.0        0.0        0.0        1
C_0622           CIRCULAR     1.20       0.0        0.0        0.0        1
C_0623           CIRCULAR     1.20       0.0        0.0        0.0        1
C_0624           CIRCULAR     1.20       0.0        0.0        0.0        1
C_0625           CIRCULAR     1.20       0.0        0.0        0.0        1
C_0626           CIRCULAR     1.20       0.0        0.0        0.0        1
C_0627           CIRCULAR     1.20       0.0        0.0        0.0        1
C_0628           CIRCULAR     1.20       0.0        0.0        0.0        1
C_0629           CIRCULAR     1.20       0.0        0.0        0.0        1
C_0630           CIRCULAR     1.20       0.0        0.0        0.0        1
C_0631           CIRCULAR     1.20       0.0        0.0        0.0        1
C_0632           CIRCULAR     1.20       0.0        0.0        0.0        1
C_0633           CIRCULAR     1.20       0.0        0.0        0.0        1
C_0634           CIRCULAR     1.20       0.0        0.0        0.0        1
C_0635           CIRCULAR     1.20       0.0        0.0        0.0        1
C_0636           CIRCULAR     1.20       0.0        0.0        0.0        1
C_0637           CIRCULAR     1.20       0.0        0.0        0.0        1
C_0638           CIRCULAR     1.20       0.0        0.0        0.0        1
C_0639           CIRCULAR     1.20       0.0        0.0        0.0        1
C_0640           CIRCULAR     1.20       0.0        0.0        0.0        1
C_0641           CIRCULAR     1.20       0.0        0.0        0.0        1
C_0642           CIRCULAR     1.20       0.0        0.0        0.0        1
C_0643           CIRCULAR     1.20       0.0        0.0        0.0        1
C_0644           CIRCULAR     1.20       0.0        0.0        0.0        1
C_0645           CIRCULAR     1.20       0.0        0.0        0.0        1
C_0646           CIRCULAR     1.20       0.0        0.0        0.0        1
C_0647           CIRCULAR     1.20       0.0        0.0        0.0        1
C_0648           CIRCULAR     1.20       0.0        0.0        0.0        1
C_0649           CIRCULAR     1.20       0.0        0.0        0.0        1
C_0650           CIRCULAR     1.20       0.0        0.0        0.0        1
C_0651           CIRCULAR     1.20       0.0        0.0        0.0        1
C_0652           CIRCULAR     1.20       0.0        0.0        0.0        1
C_0653           CIRCULAR     1.20       0.0        0.0        0.0        1
C_0654           CIRCULAR     1.20       0.0        0.0        0.0        1
C_0655           CIRCULAR     1.20       0.0        0.0        0.0        1
C_0656           CIRCULAR     1.20       0.0        0.0        0.0        1
C_0657           CIRCULAR     1.20       0.0        0.0        0.0        1
C_0658           CIRCULAR     1.20       0.0        0.0        0.0        1
C_0659           CIRCULAR     1.20       0.0        0.0        0.0        1
C_0660           CIRCULAR     1.20       0.0        0.0        0.0        1
C_0661           CIRCULAR     1.20       0.0        0.0        0.0        1
C_0662           CIRCULAR     1.20       0.0        0.0        0.0        1
C_0663           CIRCULAR     1.20       0.0        0.0        0.0        1
C_0664           CIRCULAR     1.20       0.0        0.0        0.0        1
C_0665           CIRCULAR     1.20       0.0        0.0        0.0        1
C_0666           CIRCULAR     1.20       0.0        0.0        0.0        1
C_0667           CIRCULAR     1.20       0.0        0.0        0.0        1
C_0668           CIRCULAR     1.20       0.0        0.0        0.0        1
C_0669           CIRCULAR     1.20       0.0        0.0        0.0        1
C_0670           CIRCULAR     1.20       0.0        0.0        0.0        1
C_0671           CIRCULAR     1.20       0.0        0.0        0.0        1
C_0672           CIRCULAR     1.20       0.0        0.0        0.0        1
C_0673           CIRCULAR     1.20       0.0        0.0        0.0        1
C_0674           CIRCULAR     1.20       0.0        0.0        0.0        1
C_0675           CIRCULAR     1.20       0.0        0.0        0.0        1
C_0676           CIRCULAR     1.20       0.0        0.0        0.0        1
C_0677           CIRCULAR     1.20       0.0        0.0        0.0        1
C_0678           CIRCULAR     1.20       0.0        0.0        0.0        1
C_0679           CIRCULAR     1.20       0.0        0.0        0.0        1
C_0680           CIRCULAR     1.20       0.0        0.0        0.0        1
C_0681           CIRCULAR     1.20       0.0        0.0        0.0        1
C_0682           CIRCULAR     1.20       0.0        0.0        0.0        1
C_0683           CIRCULAR     1.20       0.0        0.0        0.0        1
C_0684           CIRCULAR     1.20       0.0        0.0        0.0        1
C_0685           CIRCULAR     1.20       0.0        0.0        0.0        1
C_0686           CIRCULAR     1.20       0.0        0.0        0.0        1
C_0687           CIRCULAR     1.20       0.0        0.0        0.0        1
C_0688           CIRCULAR     1.20       0.0        0.0        0.0        1
C_0689           CIRCULAR     1.20       0.0        0.0        0.0        1
C_0690           CIRCULAR     1.20       0.0        0.0        0.0        1
C_0691           CIRCULAR     1.20       0.0        0.0        0.0        1
C_0692           CIRCULAR     1.20       0.0        0.0        0.0        1
C_0693           CIRCULAR     1.20       0.0        0.0        0.0        1
C_0694           CIRCULAR     1.20       0.0        0.0        0.0        1
C_0695           CIRCULAR     1.20       0.0        0.0        0.0        1
C_0696           CIRCULAR     1.20       0.0        0.0        0.0        1
C_0697           CIRCULAR     1.20       0.0        0.0        0.0        1
C_0698           CIRCULAR     1.20       0.0        0.0        0.0        1
C_0699           CIRCULAR     1.20       0.0        0.0        0.0        1
C_0700           CIRCULAR     1.20       0.0        0.0        0.0        1
C_0701           CIRCULAR     1.20       0.0        0.0        0.0        1
C_0702           CIRCULAR     1.20       0.0        0.0        0.0        1
C_0703           CIRCULAR     1.20       0.0        0.0        0.0        1
C_0704           CIRCULAR     1.20       0.0        0.0        0.0        1
C_0705           CIRCULAR     1.20       0.0        0.0        0.0        1
C_0706           CIRCULAR     1.20       0.0        0.0        0.0        1
C_0707           CIRCULAR     1.20       0.0        0.0        0.0        1
C_0708           CIRCULAR     1.20       0.0        0.0        0.0        1
C_0709           CIRCULAR     1.20       0.0        0.0        0.0        1
C_0710           CIRCULAR     1.20       0.0        0.0        0.0        1
C_0711           CIRCULAR     1.20       0.0        0.0        0.0        1
C_0712           CIRCULAR     1.20       0.0        0.0        0.0        1
C_0713           CIRCULAR     1.20       0.0        0.0        0.0        1
C_0714           CIRCULAR     1.20       0.0        0.0        0.0        1
C_0715           CIRCULAR     1.20       0.0        0.0        0.0        1
C_0716           CIRCULAR     1.20       0.0        0.0        0.0        1
C_0717           CIRCULAR     1.20       0.0        0.0        0.0        1
C_0718           CIRCULAR     1.20       0.0        0.0        0.0        1
C_0719           CIRCULAR     1.20       0.0        0.0        0.0        1
C_0720           CIRCULAR     1.20       0.0        0.0        0.0        1
C_0721           CIRCULAR     1.20       0.0        0.0        0.0        1
C_0722           CIRCULAR     1.20       0.0        0.0        0.0        1
C_0723           CIRCULAR     1.20       0.0        0.0        0.0        1
C_0724           CIRCULAR     1.20       0.0        0.0        0.0        1
C_0725           CIRCULAR     1.20       0.0        0.0        0.0        1
C_0726           CIRCULAR     1.20       0.0        0.0        0.0        1
C_0727           CIRCULAR     1.20       0.0        0.0        0.0        1
C_0728           CIRCULAR     1.20       0.0        0.0        0.0        1
C_0729           CIRCULAR     1.20       0.0        0.0        0.0        1
C_0730           CIRCULAR     1.20       0.0        0.0        0.0        1
C_0731           CIRCULAR     1.20       0.0        0.0        0.0        1
C_0732           CIRCULAR     1.20       0.0        0.0        0.0        1
C_0733           CIRCULAR     1.20       0.0        0.0        0.0        1
C_0734           CIRCULAR     1.20       0.0        0.0        0.0        1
C_0735           CIRCULAR     1.20       0.0        0.0        0.0        1
C_0736           CIRCULAR     1.20       0.0        0.0        0.0        1
C_0737           CIRCULAR     1.20       0.0        0.0        0.0        1
C_0738           CIRCULAR     1.20       0.0        0.0        0.0        1
C_0739           CIRCULAR     1.20       0.0        0.0        0.0        1
C_0740           CIRCULAR     1.20       0.0        0.0        0.0        1
C_0741           CIRCULAR     1.20       0.0        0.0        0.0        1
C_0742           CIRCULAR     1.20       0.0        0.0        0.0        1
C_0743           CIRCULAR     1.20       0.0        0.0        0.0        1
C_0744           CIRCULAR     1.20       0.0        0.0        0.0        1
C_0745           CIRCULAR     1.20       0.0        0.0        0.0        1
C_0746           CIRCULAR     1.20       0.0        0.0        0.0        1
C_0747           CIRCULAR     1.20       0.0        0.0        0.0        1
C_0748           CIRCULAR     1.20       0.0        0.0        0.0        1
C_0749           CIRCULAR     1.20       0.0        0.0        0.0        1
C_0750           CIRCULAR     1.20       0.0        0.0        0.0        1
C_0751           CIRCULAR     1.20       0.0        0.0        0.0        1
C_0752           CIRCULAR     1.20       0.0        0.0        0.0        1
C_0753           CIRCULAR     1.20       0.0        0.0        0.0        1
C_0754           CIRCULAR     1.20       0.0        0.0        0.0        1
C_0755           CIRCULAR     1.20       0.0        0.0        0.0        1
C_0756           CIRCULAR     1.20       0.0        0.0        0.0        1
C_0757           CIRCULAR     1.20       0.0        0.0        0.0        1
C_0758           CIRCULAR     1.20       0.0        0.0        0.0        1
C_0759           CIRCULAR     1.20       0.0        0.0        0.0        1
C_0760           CIRCULAR     1.20       0.0        0.0        0.0        1
C_0761           CIRCULAR     1.20       0.0        0.0        0.0        1
C_0762           CIRCULAR     1.20       0.0        0.0        0.0        1
C_0763           CIRCULAR     1.20       0.0        0.0        0.0        1
C_0764           CIRCULAR     1.20       0.0        0.0        0.0        1
C_0765           CIRCULAR     1.20       0.0        0.0        0.0        1
C_0766           CIRCULAR     1.20       0.0        0.0        0.0        1
C_0767           CIRCULAR     1.20       0.0        0.0        0.0        1
C_0768           CIRCULAR     1.20       0.0        0.0        0.0        1
C_0769           CIRCULAR     1.20       0.0        0.0        0.0        1
C_0770           CIRCULAR     1.20       0.0        0.0        0.0        1
C_0771           CIRCULAR     1.20       0.0        0.0        0.0        1
C_0772           CIRCULAR     1.20       0.0        0.0        0.0        1
C_0773           CIRCULAR     1.20       0.0        0.0        0.0        1
C_0774           CIRCULAR     1.20       0.0        0.0        0.0        1
C_0775           CIRCULAR     1.20       0.0        0.0        0.0        1
C_0776           CIRCULAR     1.20       0.0        0.0        0.0        1
C_0777           CIRCULAR     1.20       0.0        0.0        0.0        1
C_0778           CIRCULAR     1.20       0.0        0.0        0.0        1
C_0779           CIRCULAR     1.20       0.0        0.0        0.0        1
C_0780           CIRCULAR     1.20       0.0        0.0        0.0        1
C_0781           CIRCULAR     1.20       0.0        0.0        0.0        1
C_0782           CIRCULAR     1.20       0.0        0.0        0.0        1
C_0783           CIRCULAR     1.20       0.0        0.0        0.0        1
C_0784           CIRCULAR     1.20       0.0        0.0        0.0        1
C_0785           CIRCULAR     1.20       0.0        0.0        0.0        1
C_0786           CIRCULAR     1.20       0.0        0.0        0.0        1
C_0787           CIRCULAR     1.20       0.0        0.0        0.0        1
C_0788           CIRCULAR     1.20       0.0        0.0        0.0        1
C_0789           CIRCULAR     1.20       0.0        0.0        0.0        1
C_0790           CIRCULAR     1.20       0.0        0.0        0.0        1
C_0791           CIRCULAR     1.20       0.0        0.0        0.0        1
C_0792           CIRCULAR     1.20       0.0        0.0        0.0        1
C_0793           CIRCULAR     1.20       0.0        0.0        0.0        1
C_0794           CIRCULAR     1.20       0.0        0.0        0.0        1
C_0795           CIRCULAR     1.20       0.0        0.0        0.0        1
C_0796           CIRCULAR     1.20       0.0        0.0        0.0        1
C_0797           CIRCULAR     1.20       0.0        0.0        0.0        1
C_0798           CIRCULAR     1.20       0.0        0.0        0.0        1
C_0799           CIRCULAR     1.20       0.0        0.0        0.0        1
C_0800           CIRCULAR     1.20       0.0        0.0        0.0        1
C_0801           CIRCULAR     1.20       0.0        0.0        0.0        1
C_0802           CIRCULAR     1.20       0.0        0.0        0.0        1
C_0803           CIRCULAR     1.20       0.0        0.0        0.0        1
C_0804           CIRCULAR     1.20       0.0        0.0        0.0        1
C_0805           CIRCULAR     1.20       0.0        0.0        0.0        1
C_0806           CIRCULAR     1.20       0.0        0.0        0.0        1
C_0807           CIRCULAR     1.20       0.0        0.0        0.0        1
C_0808           CIRCULAR     1.20       0.0        0.0        0.0        1
C_0809           CIRCULAR     1.20       0.0        0.0        0.0        1
C_0810           CIRCULAR     1.20       0.0        0.0        0.0        1
C_0811           CIRCULAR     1.20       0.0        0.0        0.0        1
C_0812           CIRCULAR     1.20       0.0        0.0        0.0        1
C_0813           CIRCULAR     1.20       0.0        0.0        0.0        1
C_0814           CIRCULAR     1.20       0.0        0.0        0.0        1
C_0815           CIRCULAR     1.20       0.0        0.0        0.0        1
C_0816           CIRCULAR     1.20       0.0        0.0        0.0        1
C_0817           CIRCULAR     1.20       0.0        0.0        0.0        1
C_0818           CIRCULAR     1.20       0.0        0.0        0.0        1
C_0819           CIRCULAR     1.20       0.0        0.0        0.0        1
C_0820           CIRCULAR     1.20       0.0        0.0        0.0        1
C_0821           CIRCULAR     1.20       0.0        0.0        0.0        1
C_0822           CIRCULAR     1.20       0.0        0.0        0.0        1
C_0823           CIRCULAR     1.20       0.0        0.0        0.0        1
C_0824           CIRCULAR     1.20       0.0        0.0        0.0        1
C_0825           CIRCULAR     1.20       0.0        0.0        0.0        1
C_0826           CIRCULAR     1.20       0.0        0.0        0.0        1
C_0827           CIRCULAR     1.20       0.0        0.0        0.0        1
C_0828           CIRCULAR     1.20       0.0        0.0        0.0        1
C_0829           CIRCULAR     1.20       0.0        0.0        0.0        1
C_0830           CIRCULAR     1.20       0.0        0.0        0.0        1
C_0831           CIRCULAR     1.20       0.0        0.0        0.0        1
C_0832           CIRCULAR     1.20       0.0        0.0        0.0        1
C_0833           CIRCULAR     1.20       0.0        0.0        0.0        1
C_0834           CIRCULAR     1.20       0.0        0.0        0.0        1
C_0835           CIRCULAR     1.20       0.0        0.0        0.0        1
C_0836           CIRCULAR     1.20       0.0        0.0        0.0        1
C_0837           CIRCULAR     1.20       0.0        0.0        0.0        1
C_0838           CIRCULAR     1.20       0.0        0.0        0.0        1
C_0839           CIRCULAR     1.20       0.0        0.0        0.0        1
C_0840           CIRCULAR     1.20       0.0        0.0        0.0        1
C_0841           CIRCULAR     1.20       0.0        0.0        0.0        1
C_0842           CIRCULAR     1.20       0.0        0.0        0.0        1
C_0843           CIRCULAR     1.20       0.0        0.0        0.0        1
C_0844           CIRCULAR     1.20       0.0        0.0        0.0        1
C_0845           CIRCULAR     1.20       0.0        0.0        0.0        1
C_0846           CIRCULAR     1.20       0.0        0.0        0.0        1
C_0847           CIRCULAR     1.20       0.0        0.0        0.0        1
C_0848           CIRCULAR     1.20       0.0        0.0        0.0        1
C_0849           CIRCULAR     1.20       0.0        0.0        0.0        1
C_0850           CIRCULAR     1.20       0.0        0.0        0.0        1
C_0851           CIRCULAR     1.20       0.0        0.0        0.0        1
C_0852           CIRCULAR     1.20       0.0        0.0        0.0        1
C_0853           CIRCULAR     1.20       0.0        0.0        0.0        1
C_0854           CIRCULAR     1.20       0.0        0.0        0.0        1
C_0855           CIRCULAR     1.20       0.0        0.0        0.0        1
C_0856           CIRCULAR     1.20       0.0        0.0        0.0        1
C_0857           CIRCULAR     1.20       0.0        0.0        0.0        1
C_0858           CIRCULAR     1.20       0.0        0.0        0.0        1
C_0859           CIRCULAR     1.20       0.0        0.0        0.0        1
C_0860           CIRCULAR     1.20       0.0        0.0        0.0        1
C_0861           CIRCULAR     1.20       0.0        0.0        0.0        1
C_0862           CIRCULAR     1.20       0.0        0.0        0.0        1
C_0863           CIRCULAR     1.20       0.0        0.0        0.0        1
C_0864           CIRCULAR     1.20       0.0        0.0        0.0        1
C_0865           CIRCULAR     1.20       0.0        0.0        0.0        1
C_0866           CIRCULAR     1.20       0.0        0.0        0.0        1
C_0867           CIRCULAR     1.20       0.0        0.0        0.0        1
C_0868           CIRCULAR     1.20       0.0        0.0        0.0        1
C_0869           CIRCULAR     1.20       0.0        0.0        0.0        1
C_0870           CIRCULAR     1.20       0.0        0.0        0.0        1
C_0871           CIRCULAR     1.20       0.0        0.0        0.0        1
C_0872           CIRCULAR     1.20       0.0        0.0        0.0        1
C_0873           CIRCULAR     1.20       0.0        0.0        0.0        1
C_0874           CIRCULAR     1.20       0.0        0.0        0.0        1
C_0875           CIRCULAR     1.20       0.0        0.0        0.0        1
C_0876           CIRCULAR     1.20       0.0        0.0        0.0        1
C_0877           CIRCULAR     1.20       0.0        0.0        0.0        1
C_0878           CIRCULAR     1.20       0.0        0.0        0.0        1
C_0879           CIRCULAR     1.20       0.0        0.0        0.0        1
C_0880           CIRCULAR     1.20       0.0        0.0        0.0        1
C_0881           CIRCULAR     1.20       0.0        0.0        0.0        1
C_0882           CIRCULAR     1.20       0.0        0.0        0.0        1
C_0883           CIRCULAR     1.20       0.0        0.0        0.0        1
C_0884           CIRCULAR     1.20       0.0        0.0        0.0        1
C_0885           CIRCULAR     1.20       0.0        0.0        0.0        1
C_0886           CIRCULAR     1.20       0.0        0.0        0.0        1
C_0887           CIRCULAR     1.20       0.0        0.0        0.0        1
C_0888           CIRCULAR     1.20       0.0        0.0        0.0        1
C_0889           CIRCULAR     1.20       0.0        0.0        0.0        1
C_0890           CIRCULAR     1.20       0.0        0.0        0.0        1
C_0891           CIRCULAR     1.20       0.0        0.0        0.0        1
C_0892           CIRCULAR     1.20       0.0        0.0        0.0        1
C_0893           CIRCULAR     1.20       0.0        0.0        0.0        1
C_0894           CIRCULAR     1.20       0.0        0.0        0.0        1
C_0895           CIRCULAR     1.20       0.0        0.0        0.0        1
C_0896           CIRCULAR     1.20       0.0        0.0        0.0        1
C_0897           CIRCULAR     1.20       0.0        0.0        0.0        1
C_0898           CIRCULAR     1.20       0.0        0.0        0.0        1
C_0899           CIRCULAR     1.20       0.0        0.0        0.0        1
C_0900           CIRCULAR     1.20       0.0        0.0        0.0        1
C_0901           CIRCULAR     1.20       0.0        0.0        0.0        1
C_0902           CIRCULAR     1.20       0.0        0.0        0.0        1
C_0903           CIRCULAR     1.20       0.0        0.0        0.0        1
C_0904           CIRCULAR     1.20       0.0        0.0        0.0        1
C_0905           CIRCULAR     1.20       0.0        0.0        0.0        1
C_0906           CIRCULAR     1.20       0.0        0.0        0.0        1
C_0907           CIRCULAR     1.20       0.0        0.0        0.0        1
C_0908           CIRCULAR     1.20       0.0        0.0        0.0        1
C_0909           CIRCULAR     1.20       0.0        0.0        0.0        1
C_0910           CIRCULAR     1.20       0.0        0.0        0.0        1
C_0911           CIRCULAR     1.20       0.0        0.0        0.0        1
C_0912           CIRCULAR     1.20       0.0        0.0        0.0        1
C_0913           CIRCULAR     1.20       0.0        0.0        0.0        1
C_0914           CIRCULAR     1.20       0.0        0.0        0.0        1
C_0915           CIRCULAR     1.20       0.0        0.0        0.0        1

[REPORT]
INPUT YES
CONTROLS YES
NODES ALL
LINKS ALL
